<?xml version="1.0" encoding="UTF-8"?>
<xrdMeasurements xmlns="http://www.xrdml.com/XRDMeasurement/1.6" xmlns:xsi="http://www.w3.org/2001/XMLSchema-instance" xsi:schemaLocation="http://www.xrdml.com/XRDMeasurement/1.6 http://www.xrdml.com/XRDMeasurement/1.6/XRDMeasurement.xsd" status="Completed">
	<comment>
		<entry>Configuration=Chi-Phi-z stage, Owner=User-1, Creation date=2016/4/21 11:38:47</entry>
		<entry>Goniometer=Theta/Theta; Minimum step size 2Theta:0.0001; Minimum step size Omega:0.0001</entry>
		<entry>Sample stage=Chi-Phi-z stage 240 mm (reflection); Minimum step size Phi:0.01; Minimum step size Chi:0.01; Minimum step size Z:0.001</entry>
		<entry>Diffractometer system=EMPYREAN</entry>
		<entry>Measurement program=C:\PANalytical\Data Collector\Programs\Tony Zhu\XRR 1.xrdmp, Identifier={004D6FE0-4B10-4303-AD3A-861216BCB857}</entry>
		<entry>Batch program=C:\PANalytical\Data Collector\Programs\Tony Zhu\Batch_XRR 1.xrdmp, Identifier={4FC99300-DDE0-4F9C-A751-F10EE228F891}</entry>
	</comment>
	<sample type="To be analyzed">
		<id>Co(260914A)</id>
		<name></name>
		<preparedBy>User-1</preparedBy>
	</sample>
	<xrdMeasurement measurementType="Scan" status="Completed" sampleMode="Reflection">
		<comment>
			<entry>PHD Lower Level = 4.02 (keV), PHD Upper Level = 16.08 (keV)</entry>
		</comment>
		<usedWavelength intended="K-Alpha">
			<kAlpha1 unit="Angstrom">1.5405980</kAlpha1>
			<kAlpha2 unit="Angstrom">1.5444260</kAlpha2>
			<kBeta unit="Angstrom">1.3922500</kBeta>
			<ratioKAlpha2KAlpha1>0.5000</ratioKAlpha2KAlpha1>
		</usedWavelength>
		<incidentBeamPath>
			<radius unit="mm">240.00</radius>
			<xRayTube id="1010048" name="Empyrean Cu LFF HR (9430 033 7310x) DK417079">
				<tension unit="kV">40.0</tension>
				<current unit="mA">20.0</current>
				<anodeMaterial>Cu</anodeMaterial>
				<focus type="Line">
					<length unit="mm">12.0</length>
					<width unit="mm">0.4</width>
					<takeOffAngle unit="deg">4.4</takeOffAngle>
				</focus>
			</xRayTube>
			<xRayMirror id="27020001" name="Inc. Parallel beam X-ray mirror for Cu radiation" hybrid="false">
				<crystal type="Graded" shape="Parabolic">W/Si</crystal>
				<acceptanceAngle unit="deg">0.800</acceptanceAngle>
				<length unit="mm">55.3</length>
			</xRayMirror>
			<sollerSlit id="21010002" name="Soller slits 0.04 rad.">
				<opening unit="rad">0.0400</opening>
			</sollerSlit>
			<divergenceSlit id="22010011" name="Fixed slit 1/32°" xsi:type="fixedDivergenceSlitType">
				<distanceToSample unit="mm">140.00</distanceToSample>
				<height unit="mm">0.05</height>
			</divergenceSlit>
		</incidentBeamPath>
		<sampleOffset>
			<position axis="2Theta" unit="deg">0.0039</position>
			<position axis="Omega" unit="deg">-0.0066</position>
		</sampleOffset>
		<diffractedBeamPath>
			<radius unit="mm">240.00</radius>
			<sollerSlit id="21010002" name="Soller slits 0.04 rad.">
				<opening unit="rad">0.0400</opening>
			</sollerSlit>
			<detector id="7010020" name="PIXcel3D-Medipix3 1x1 detector" xsi:type="areaDetectorType">
				<phd>
					<lowerLevel unit="%">25.0</lowerLevel>
					<upperLevel unit="%">100.0</upperLevel>
				</phd>
				<mode>Receiving slit</mode>
				<activeChannelsEquatorial>1</activeChannelsEquatorial>
				<activeChannelsAxial>255</activeChannelsAxial>
				<pitchEquatorial unit="mm">0.05500</pitchEquatorial>
				<pitchAxial unit="mm">0.05500</pitchAxial>
				<readOutPeriod unit="seconds">0.050</readOutPeriod>
			</detector>
		</diffractedBeamPath>
		<scan appendNumber="0" mode="Continuous" scanAxis="2Theta-Omega" status="Completed">
			<header>
				<startTimeStamp>2026-09-16T10:22:47+08:00</startTimeStamp>
				<endTimeStamp>2026-09-16T10:40:31+08:00</endTimeStamp>
				<author>
					<name>admin</name>
				</author>
				<source>
					<applicationSoftware version="5.3">Data Collector</applicationSoftware>
					<instrumentControlSoftware version="7.8b 20160531">EMPYREAN</instrumentControlSoftware>
					<instrumentID>0000000011180024</instrumentID>
				</source>
			</header>
			<dataPoints>
				<positions axis="2Theta" unit="deg">
					<startPosition>0.0955</startPosition>
					<endPosition>15.9985</endPosition>
				</positions>
				<positions axis="Omega" unit="deg">
					<startPosition>0.04775</startPosition>
					<endPosition>7.99925</endPosition>
				</positions>
				<positions axis="Phi" unit="deg">
					<commonPosition>0.00</commonPosition>
				</positions>
				<positions axis="Chi" unit="deg">
					<commonPosition>-0.15</commonPosition>
				</positions>
				<positions axis="Z" unit="mm">
					<commonPosition>7.204</commonPosition>
				</positions>
				<commonCountingTime unit="seconds">0.176</commonCountingTime>
				<intensities unit="counts">711870 739117 767190 791074 815467 838753 862038 885704 907635 934283 962024 987642 1008564 1031820 1052363 1075078 1095969 1118270 1144483 1170282 1192073 1215681 1237273 1260870 1280241 1301691 1326718 1351537 1374122 1393589 1412605 1429832 1447227 1468999 1490508 1511872 1535028 1557855 1574883 1591808 1610014 1629920 1645836 1665649 1687041 1709105 1723355 1739754 1753922 1770229 1782799 1799865 1816588 1834975 1852232 1866012 1878630 1891271 1903034 1917906 1932372 1948074 1962175 1970459 1980111 1987126 2000201 2005677 2017597 2028085 2039486 2050146 2057300 2063535 2070199 2078381 2086587 2093170 2103075 2109889 2112928 2115854 2118517 2122674 2129287 2130463 2135947 2142752 2145008 2147371 2147994 2148101 2153313 2152021 2152211 2153835 2152468 2151190 2149714 2143895 2147652 2144549 2141400 2136065 2138488 2133805 2131656 2126926 2118898 2115239 2112348 2104614 2100810 2089390 2085739 2074368 2060555 2045297 2028610 2000361 1975568 1952028 1935820 1923302 1913465 1906272 1903235 1900050 1895175 1897247 1897175 1888660 1886235 1881722 1874056 1869862 1865612 1862620 1863835 1861376 1855874 1849455 1845773 1841200 1835872 1831556 1826765 1825551 1819190 1810979 1802803 1797712 1793019 1784503 1776179 1773901 1769252 1763482 1752289 1744582 1739863 1730318 1721076 1715121 1708263 1697692 1690468 1679236 1668996 1656523 1651090 1644414 1633866 1626224 1613250 1605694 1598168 1586691 1572493 1565068 1551769 1540848 1531196 1521591 1506337 1494577 1483242 1468895 1454922 1444268 1433104 1422626 1405828 1393249 1379432 1362196 1351073 1336391 1322300 1308349 1292229 1279880 1260175 1247354 1230538 1217666 1197527 1185169 1169614 1153699 1136033 1117729 1102769 1083991 1067615 1051343 1034446 1018191 998534 979697 959378 942621 923852 906143 888565 870655 851831 835061 814202 795999 776107 759290 740634 721956 702526 684538 665326 646384 627511 607870 591777 575889 557226 539512 519865 503823 485507 468297 451311 435984 419528 402840 385165 370832 354586 339551 324319 309826 297527 283993 270336 257054 243906 232447 220710 209095 197645 187375 177288 166138 156901 147006 138614 129138 122204 113730 108316 100741 93357 86850 80823 75209 70077 64645 60105 55470 51551 47255 43679 40337 37282 34534 32150 29413 27205 25572 23623 21803 20677 19422 18309 17561 16624 16020 15385 15086 14989 14519 14479 14367 14414 14654 14939 15312 15658 15911 16648 16998 17505 17884 18529 19158 19689 20257 21003 21423 22464 22762 23645 23972 24677 25367 25776 26403 27006 27613 28092 28845 29580 29581 30002 30819 30908 31360 31817 32265 32312 32813 32863 33537 33585 33820 33856 33878 34504 34070 34322 34381 34407 34516 34145 34289 34374 34402 33782 33869 33522 33454 33401 33357 33062 32663 32441 32617 31861 31235 31357 30671 30441 30091 29840 29564 28956 28117 28067 27771 27268 26705 26601 26143 25786 25081 24366 23690 23838 23188 22929 22372 21891 21241 20925 20406 19972 19578 18774 18619 18247 17444 17158 16646 15936 15730 15336 15044 14611 14029 13874 13143 12848 12228 12086 11760 11193 10764 10241 10260 9718 9404 9073 8782 8448 8096 7659 7584 7186 6817 6692 6267 6141 5720 5426 5242 5067 4817 4508 4395 4118 3763 3745 3460 3356 3084 2900 2767 2616 2338 2301 2125 2079 1850 1820 1671 1451 1384 1315 1191 1121 1030 904 883 775 724 641 645 557 484 443 405 347 312 285 238 218 207 183 177 163 151 129 114 110 115 148 130 142 129 157 162 180 174 203 213 258 260 303 329 397 369 431 419 444 497 498 561 580 569 593 678 735 717 747 844 848 893 907 1011 971 1110 1093 1155 1139 1229 1236 1169 1333 1386 1426 1358 1462 1492 1521 1540 1592 1617 1592 1613 1701 1688 1739 1803 1741 1813 1864 1903 1948 1900 1888 1979 1927 1929 1975 2109 2077 1983 2077 2086 2162 2132 2155 2131 2148 2097 2221 2209 2135 2274 2301 2240 2296 2270 2259 2346 2268 2260 2199 2258 2293 2207 2253 2167 2165 2225 2227 2248 2217 2270 2282 2265 2182 2201 2171 2150 2061 2165 2130 2111 2155 2076 2043 1998 2013 1966 1955 1930 1928 1949 1863 1923 1863 1862 1822 1797 1772 1745 1713 1671 1693 1654 1543 1545 1528 1541 1526 1424 1474 1421 1403 1334 1326 1437 1265 1239 1252 1219 1164 1180 1116 1079 1086 1109 1058 977 992 983 892 837 867 838 791 836 766 726 746 721 643 668 648 621 600 606 550 563 531 510 459 444 461 445 423 383 391 371 323 317 307 305 270 258 247 262 245 227 170 202 205 197 155 166 177 158 156 165 132 124 136 131 138 114 97 119 102 103 90 94 103 117 115 113 97 100 130 120 114 133 118 136 131 144 146 159 169 172 176 193 181 197 219 212 217 224 226 234 248 291 276 281 294 315 289 295 303 329 325 357 377 352 407 392 378 430 432 458 420 489 458 441 479 442 477 472 481 486 541 511 489 547 554 540 570 549 548 540 518 577 620 577 621 563 609 575 645 619 621 606 636 613 638 621 567 624 632 657 601 641 608 689 615 617 647 611 599 641 644 620 635 597 597 566 623 625 577 586 672 622 589 586 590 531 557 556 526 571 517 505 539 554 491 480 461 476 429 471 502 432 458 451 400 409 397 359 391 372 361 396 344 348 336 316 326 300 331 287 297 268 311 286 247 263 263 243 231 227 201 198 188 177 209 163 177 181 168 152 166 131 131 128 125 107 105 89 108 109 115 93 74 90 68 73 61 50 63 59 48 57 58 48 46 36 37 50 40 32 40 32 36 42 30 35 40 32 43 36 43 40 38 28 47 30 41 44 35 51 49 52 60 59 61 63 71 68 57 49 63 75 71 76 86 96 102 86 96 102 88 116 129 112 136 153 126 152 153 134 137 165 159 153 191 147 168 167 172 145 186 139 166 210 204 197 220 216 216 210 228 217 220 211 202 247 251 221 253 245 247 230 227 257 261 243 247 252 254 216 261 240 227 223 225 261 285 291 257 250 217 279 239 242 266 269 252 251 263 236 229 258 248 258 273 262 215 256 226 220 249 239 240 238 224 243 216 209 196 243 210 226 175 207 202 208 173 209 185 175 158 168 182 194 171 151 173 158 138 123 131 147 152 152 134 133 126 149 123 107 136 126 124 114 111 103 80 106 100 84 86 88 89 59 71 77 66 74 48 61 54 65 49 60 54 52 48 48 38 47 37 25 29 32 37 31 24 28 24 22 25 15 19 19 12 20 10 14 9 14 8 14 8 9 10 9 6 9 3 3 5 10 5 5 7 5 6 5 6 11 5 5 7 4 10 9 10 13 7 6 13 10 13 20 11 13 14 18 15 14 17 17 17 20 30 35 29 22 28 24 28 32 26 27 39 38 25 27 32 37 37 45 42 43 45 35 39 42 56 49 56 46 49 43 61 44 48 47 66 59 69 62 56 59 67 49 52 56 59 51 63 54 49 77 58 67 73 57 55 63 80 69 68 84 55 59 71 65 64 69 63 76 58 61 56 67 66 63 77 75 70 62 69 64 82 55 68 51 58 64 52 62 47 52 46 45 56 55 51 51 48 54 54 62 46 54 57 53 39 44 54 48 46 43 37 38 32 49 33 34 47 31 42 32 38 35 47 42 33 42 25 28 28 28 32 29 27 31 18 25 25 30 19 22 16 25 22 20 17 17 18 15 17 17 19 17 18 6 11 12 9 16 14 8 11 8 11 6 6 11 4 11 8 9 4 7 5 6 5 2 3 4 3 3 3 4 2 2 2 2 2 4 0 1 1 0 2 0 4 1 5 3 2 2 1 1 4 3 4 1 1 1 1 5 4 3 1 2 4 2 6 4 2 1 3 6 4 5 4 6 5 2 4 8 7 5 5 1 8 8 4 10 4 9 8 4 12 2 5 6 12 8 9 9 18 11 7 10 9 9 13 13 10 10 8 12 13 16 16 13 16 18 13 13 20 15 19 16 17 15 18 20 12 17 9 14 17 12 15 17 22 16 18 23 18 16 15 16 15 18 9 16 16 12 9 23 14 26 25 16 16 13 11 15 15 13 18 11 16 13 21 20 16 10 14 15 15 9 17 15 15 18 12 8 13 14 15 11 13 9 11 13 8 17 9 5 11 12 15 9 13 15 13 11 8 10 13 8 12 14 14 11 10 10 13 6 10 5 7 6 9 8 6 2 10 10 6 5 5 5 3 4 2 4 5 7 5 6 7 3 4 3 9 6 1 3 3 3 3 2 5 1 1 4 0 4 2 2 3 4 3 2 4 1 2 3 3 0 4 1 2 1 1 1 3 1 3 2 3 4 3 0 1 4 0 1 1 2 4 4 3 0 0 1 4 1 4 4 1 4 5 2 1 4 3 1 3 1 2 2 5 5 5 1 7 4 6 7 3 5 3 3 4 2 2 5 4 7 4 5 2 12 8 6 5 8 3 6 4 6 11 7 9 3 7 4 9 7 6 10 6 5 6 8 8 13 4 2 9 5 7 3 3 6 3 11 3 6 7 2 7 6 8 12 8 5 11 4 8 8 12 9 6 10 2 7 4 12 6 10 8 12 12 13 3 7 8 9 3 6 5 3 11 2 10 6 8 9 11 6 5 6 9 8 8 11 6 9 5 6 7 6 9 7 6 4 7 4 4 7 3 2 12 2 4 7 3 2 3 2 5 3 3 2 2 4 0 2 5 0 3 2 4 3 1 2 1 3 2 3 4 6 3 1 2 5 1 1 1 1 2 4 3 2 1 1 2 1 1 1 1 1 1 1 0 3 0 4 1 0 2 1 0 1 2 1 0 0 1 0 1 0 2 0 0 1 2 3 1 0 2 2 1 4 0 0 1 1 0 1 2 2 3 2 3 6 1 1 1 3 3 1 4 3 5 3 2 1 2 1 6 0 2 1 1 2 4 2 2 3 1 5 2 4 4 7 3 2 2 3 2 1 6 4 6 2 4 5 3 4 4 2 3 2 5 4 1 3 3 5 6 7 1 7 5 6 7 3 5 5 4 6 4 3 4 2 3 3 3 0 5 5 1 3 3 5 4 3 5 4 3 2 4 3 3 6 2 3 0 3 1 2 3 2 5 4 0 7 3 3 1 7 7 5 2 2 4 4 1 4 4 2 0 4 3 5 1 1 3 2 4 3 3 1 3 4 2 2 4 0 2 3 2 2 2 3 1 3 1 2 3 2 1 3 3 4 1 0 1 1 2 2 1 2 0 3 3 1 4 1 2 2 0 0 0 2 3 2 1 1 0 0 0 1 0 2 0 2 0 0 0 1 0 1 1 2 1 0 1 2 4 1 0 1 0 2 0 0 1 2 0 0 1 0 0 1 1 2 1 1 3 0 0 1 3 0 0 0 4 0 0 1 2 0 3 1 0 0 0 1 1 4 3 2 2 2 2 2 0 0 1 4 2 1 3 3 0 1 0 1 0 1 1 1 1 2 4 3 2 2 0 3 2 2 3 5 1 0 2 1 2 0 1 0 1 0 1 2 2 2 2 2 4 1 0 1 0 3 4 4 2 2 2 1 1 2 0 2 0 5 3 2 2 0 0 4 1 2 0 1 2 1 1 0 3 2 1 2 1 2 4 2 2 3 0 0 0 0 1 0 1 0 1 2 2 1 0 2 1 0 5 1 2 0 3 1 5 3 2 1 1 0 0 0 1 1 0 0 0 1 1 0 1 0 1 0 1 0 1 0 0 1 0 0 0 0 0 0 1 0 0 0 1 1 0 0 1 1 0 0 1 0 0 0 1 1 2 4 0 0 0 1 0 0 2 0 2 0 0 0 0 1 0 0 1 0 0 0 1 1 0 2 1 0 0 1 0 1 1 1 2 2 2 1 0 0 0 2 1 1 0 0 0 1 1 1 2 0 0 2 0 0 0 0 0 0 2 1 0 0 0 1 0 1 1 0 0 0 0 1 1 1 1 1 0 1 3 2 0 1 2 2 2 1 0 0 0 2 2 1 2 1 1 2 1 0 1 1 0 2 1 2 2 2 2 1 0 4 1 1 0 0 0 1 0 1 2 2 0 1 2 3 1 0 1 1 2 1 1 1 0 1 4 0 0 0 0 1 0 1 0 0 1 1 1 0 0 0 2 1 0 3 0 1 0 0 0 0 0 3 1 0 1 0 0 0 1 1 0 2 1 1 0 1 0 0 1 1 1 0 1 2 1 0 1 0 0 0 0 0 0 1 1 0 1 0 0 0 0 1 1 0 0 1 2 2 0 0 1 1 0 0 2 1 1 0 0 0 1 1 0 0 2 1 0 1 2 2 2 1 2 0 2 0 1 1 1 0 0 0 1 0 2 0 1 0 0 0 0 1 0 0 0 0 1 1 1 0 1 0 2 0 1 1 0 1 1 0 0 1 0 3 0 0 0 0 0 0 2 0 1 0 1 1 0 0 2 1 3 0 1 1 0 2 2 1 3 0 0 0 0 0 1 1 1 1 0 0 2 1 2 0 0 2 0 1 1 0 0 1 2 0 0 0 1 1 0 0 0 0 3 0 2 0 1 1 2 1 0 0 0 3 2 0 1 0 1 0 0 0 0 1 0 0 0 1 1 0 1 0 0 1 0 0 0 1 0 0 0 0 0 0 1 1 0 0 1 3 0 0 2 0 0 0 2 0 0 0 1 0 1 0 0 2 0 2 0 1 2 0 0 1 0 1 3 0 0 0 1 0 2 1 1 0 0 0 0 1 2 0 0 1 0 1 0 3 0 0 1 0 0 0 1 0 0 0 0 0 1 0 1 0 1 0 1 1 1 2 1 4 1 0 1 0 1 1 0 1 2 1 1 1 2 0 1 1 0 2 0 2 0 0 1 2 0 0 3 0 0 0 0 2 0 1 0 3 0 0 0 0 0 0 0 0 1 1 0 0 0 0 0 0 0 0 0 1 1 1 1 2 0 1 1 2 1 1 0 1 0 0 1 0 0 0 2 1 0 0 1 0 0 0 3 0 1 0 0 0 2 1 1 0 0 0 0 0 1 0 1 1 0 1 0 1 0 0 0 0 0 1 0 1 0 1 1 0 1 1 1 1 1 1 0 1 3 1 2 0 0 0 0 0 1 0 0 2 0 1 0 1 0 0 1 0 1 0 0 0 1 1 1 0 0 0 0 1 0 1 2 2 0 2 2 1 0 4 0 0 0 1 0 1 0 2 0 1 0 0 0 0 0 0 1 1 0 0 0 1 0 2 1 1 1 0 0 0 0 3 0 0 2 1 1 0 0 0 0 0 0 0 0 2 2 1 0 0 2 0 0 0 1 0 0 0 1 0 1 0 1 0 0 0 2 2 0 1 1 2 0 0 0 0 1 0 1 2 0 0 0 0 2 0 1 3 1 1 0 0 1 1 0 1 1 1 1 0 1 0 0 0 1 0 0 2 1 0 1 0 1 0 1 0 1 2 0 0 0 0 0 2 0 0 0 2 3 0 1 0 1 0 0 0 1 1 1 2 1 0 1 0 2 0 0 1 0 1 0 1 3 0 1 1 0 2 2 1 1 0 0 0 0 0 1 1 0 1 1 0 1 0 1 1 2 1 0 0 0 0 0 0 0 0 0 0 1 0 1 0 0 0 0 0 0 0 0 0 0 0 0 0 0 0 1 0 0 0 0 2 0 1 0 1 0 1 0 0 2 0 1 0 1 0 0 0 0 0 0 0 1 1 0 0 0 1 1 0 0 0 0 0 0 0 1 0 0 0 0 0 0 0 1 0 1 0 0 0 1 0 0 0 0 1 0 3 0 0 1 0 0 0 1 0 1 1 0 0 1 1 1 0 0 0 0 0 0 1 1 0 0 0 0 1 1 1 0 0 1 3 1 1 2 1 0 0 0 0 0 1 0 1 1 2 0 0 1 1 0 0 2 1 0 0 0 0 0 1 0 0 1 0 1 0 0 0 1 0 0 0 0 0 1 0 0 0 1 2 0 0 2 2 0 1 0 0 0 0 0 0 0 0 0 0 0 0 1 0 0 2 1 0 1 0 0 0 0 0 0 0 1 0 1 2 3 0 1 0 0 0 0 1 0 0 0 0 0 1 0 0 0 1 2 1 0 0 2 0 0 1 0 0 0 0 0 1 0 0 0 0 0 0 1 0 0 0 0 1 1 2 0 0 0 0 0 0 0 0 0 0 0 2 0 0 0 1 1 0 1 0 0 0 1 0 0 0 0 0 0 0 1 0 0 0 0 0 0 1 1 0 0 1 0 0 0 2 2 0 1 0 0 0 0 0 0 0 0 2 3 0 0 1 1 0 0 0 0 1 1 1 2 0 1 0 1 3 1 0 0 0 1 2 3 0 1 0 0 0 1 1 0 0 1 0 2 0 0 0 1 0 0 0 0 0 0 0 0 0 0 1 0 1 0 0 1 0 0 0 3 0 0 1 0 0 1 0 0 0 0 0 0 0 0 0 1 0 0 0 0 0 1 1 0 1 0 0 0 0 1 1 0 0 0 1 0 0 0 0 1 0 0 2 2 0 2 1 1 0 0 0 2 0 1 2 0 0 1 0 1 0 0 0 0 0 0 0 1 0 1 0 1 0 1 0 0 1 1 2 0 1 0 0 0 0 0 1 1 0 1 1 0 0 0 1 1 2 0 1 0 0 1 0 2 0 0 0 0 0 2 0 0 2 0 0 0 1 0 1 1 1 0 1 0 0 0 0 0 0 0 0 2 1 1 1 1 2 0 0 1 1 0 0 0 0 1 0 1 1 1 0 0 0 0 1 0 1 0 0 0 1 0 0 1 0 0 1 1 1 0 0 0 0 0 0 1 0 0 0 0 0 2 0 0 0 0 1 0 0 2 0 1 0 0 1 0 0 0 1 1 0 0 1 0 1 0 0 0 0 1 0 0 0 0 0 0 0 1 0 0 0 0 0 0 0 0 0 0 0 0 0 0 0 0 0 1 1 0 0 0 0 3 4 0 1 0 0 0 0 0 0 0 0 0 1 0 0 1 2 0 0 0 0 0 0 1 1 0 1 2 0 0 2 1 2 0 1 1 1 1 0 0 0 0 0 0 0 1 0 0 0 2 0 0 0 0 0 0 0 0 1 1 0 0 0 1 0 1 1 0 1 1 0 0 0 1 0 1 0 2 1 0 1 0 0 0 0 0 1 0 0 1 0 0 0 0 0 1 0 2 0 0 0 0 1 0 0 0 0 1 0 1 0 2 0 2 1 0 0 0 0 1 0 1 0 1 0 2 1 0 0 0 0 0 1 1 1 0 0 0 0 1 0 0 0 0 0 0 0 0 1 0 1 0 1 1 0 0 2 0 0 2 0 0 0 0 0 2 0 1 0 0 1 0 0 0 1 0 1 1 0 0 1 0 0 0 1 0 2 0 0 1 0 0 1 0 0 1 0 0 0 1 1 0 0 0 0 0 3 0 0 0 0 1 0 0 2 0 1 0 0 0 0 0 0 1 0 2 0 0 0 0 0 0 2 0 0 0 4 1 0 2 0 0 0 0 0 2 0 0 0 0 1 1 0 0 0 0 0 0 1 0 0 0 0 0 0 0 0 1 0 0 0 0 1 0 0 0 1 0 1 1 0 0 1 1 0 1 1 0 0 1 0 1 0 0 0 1 1 0 0 1 0 2 0 0 0 0 0 0 0 0 0 1 1 0 0 0 1 1 0 0 1 0 0 0 0 0 0 0 0 0 0 2 0 2 0 0 1 0 1 0 0 0 0 3 2 0 0 0 0 0 0 0 0 0 0 0 0 0 1 0 0 0 0 0 1 1 0 0 0 1 0 1 0 0 1 0 0 2 0 0 0 0 0 0 2 1 0 0 0 0 1 0 0 1 2 0 0 1 0 1 0 0 0 1 1 2 1 0 0 1 2 0 1 0 0 0 0 1 0 0 1 2 0 0 1 0 0 1 1 0 0 0 1 0 2 0 0 0 1 1 0 2 0 0 0 0 0 0 0 0 1 1 0 0 0 0 0 1 0 0 0 0 0 0 0 1 0 1 0 0 1 0 1 1 0 0 0 0 0 0 0 1 1 4 1 0 1 1 0 0 1 0 0 0 1 0 0 0 1 0 0 2 0 0 0 0 0 0 0 1 0 0 0 1 0 0 0 0 0 2 0 0 3 0 0 0 0 0 1 0 0 0 0 0 0 1 0 0 0 1 0 0 0 2 0 0 0 0 1 0 0 1 1 1 0 0 1 1 0 0 0 1 0 1 0 0 0 0 1 0 1 0 3 0 0 2 1 2 0 0 1 1 1 0 2 0 0 2 0 1 0 0 0 1 0 0 0 0 0 1 0 0 1 0 1 0 0 0 1 0 0 0 2 0 0 0 1 0 0 0 3 1 1 0 0 0 0 1 0 0 1 0 0 3 0 0 0 1 0 1 0 0 0 0 0 0 0 0 0 0 0 0 0 0 0 2 2 0 0 0 0 1 0 1 0 1 0 1 0 1 1 0 0 0 1 0 1 0 0 1 0 0 1 0 0 0 0 1 0 1 1 0 0 1 0 0 0 0 0 0 0 1 0 0 0 1 0 0 0 0 0 1 0 0 0 0 0 2 2 0 0 1 0 0 0 0 0 0 0 0 1 0 0 1 0 0 1 1 0 0 1 0 0 0 0 0 0 0 0 0 0 0 0 1 0 0 0 1 0 0 0 0 0 0 0 1 0 0 1 2 0 0 0 1 0 0 0 0 0 0 0 0 0 0 1 1 0 0 0 0 0 0 1 0 1 0 0 0 0 0 1 1 0 0 0 0 2 0 0 0 0 0 0 1 0 0 0 0 0 1 0 1 0 0 2 0 0 0 1 1 0 0 1 1 1 0 0 1 0 0 0 0 1 0 0 1 0 0 0 0 1 1 2 1 2 0 0 0 0 1 0 1 0 0 0 0 3 1 0 1 0 0 1 0 1 0 0 1 0 0 0 1 0 1 1 0 0 0 0 0 1 0 1 0 0 0 0 0 1 0 0 0 1 1 0 1 1 1 1 0 0 0 0 0 2 1 0 0 0 0 1 0 1 1 1 0 0 0 0 0 1 0 0 0 2 0 1 0 0 0 0 0 0 0 0 1 0 0 1 1 0 0 0 1 0 0 0 0 2 0 0 0 0 1 0 0 0 0 0 0 0 0 0 0 0 0 0 0 0 0 1 1 0 0 1 1 1 0 1 0 0 0 0 0 0 1 0 0 0 0 0 0 0 1 0 2 0 0 1 0 0 0 1 1 0 0 0 0 2 0 0 1 0 0 1 0 0 1 0 0 0 1 1 1 0 0 0 0 0 0 0 1 1 0 0 0 1 1 0 0 0 0 0 0 0 0 2 0 1 1 0 0 0 0 0 1 0 0 1 0 1 0 0 2 0 0 0 0 0 0 0 0 0 0 0 0 0 0 0 1 0 1 0 0 0 0 0 0 0 0 0 0 0 0 1 1 0 0 1 0 0 1 0 0 0 0 0 2 1 0 0 1 1 0 1 0 2 0 0 1 0 0 3 0 0 1 0 1 0 2 1 2 0 0 0 0 1 0 0 0 0 0 1 0 0 0 0 1 1 2 0 0 0 0 0 1 1 0 0 0 0 1 0 1 0 0 1 0 0 0 0 0 1 0 0 0 0 1 0 0 0 1 0 0 0 1 0 2 0 0 0 0 0 1 0 0 1 1 0 1 1 0 0 0 2 0 1 0 1 0 1 0 0 0 0 0 0 1 1 0 1 1 2 0 1 1 1 0 2 0 0 1 0 1 1 0 0 0 0 0 0 0 0 0 1 0 0 0 0 0 1 0 0 1 0 0 0 1 1 0 0 1 1 0 2 0 1 0 0 0 1 0 0 0 1 0 0 0 0 0 0 0 0 0 0 0 0 0 2 0 0 0 1 1 1 2 0 0 0 0 1 0 0 1 1 0 0 0 0 0 2 0 2 0 0 1 0 0 2 0 0 0 0 0 0 0 0 0 0 0 1 2 0 1 0 0 0 1 0 1 0 0 1 0 1 1 2 0 1 0 0 0 3 2 0 0 0 0 1 0 0 0 0 0 0 1 1 0 0 1 0 0 0 0 0 0 0 1 0 0 1 0 0 0 1 0 0 0 1 1 0 1 0 0 0 0 0 0 0 0 1 0 0 0 0 1 1 0 0 1 0 1 0 0 0 1 0 0 1 0 0 0 0 2 0 0 0 0 0 0 1 0 0 0 1 2 0 0 0 1 0 1 0 0 0 0 0 0 2 1 2 0 0 0 1 0 0 0 0 2 0 0 1 0 0 0 0 1 0 1 0 1 0 0 0 0 0 1 0 0 1 0 0 0 1 0 0 2 0 0 2 1 0 0 1 0 0 0 0 0 0 1 0 0 0 0 0 0 0 2 1 0 1 0 0 0 0 1 2 0 0 2 0 0 0 0 0 0 0 0 2 2 1 0 0 0 1 0 1 0 1 1 0 1 0 0 0 0 1 0 0 0 0 1 0 0 0 0 0 0 0 0 0 0 0 0 2 0 0 0 0 1 0 1 0 1 0 0 0 0 0 0 0 0 3 1 0 0 0 0 1 0 0 0 0 0 0 0 0 0 1 0 0 2 0 1 0 0 1 0 0 1 2 0 0 0 0 0 0 0 2 0 1 0 0 0 0 1 0 0 1 0 0 1 0 0 1 0 1 0 0</intensities>
			</dataPoints>
		</scan>
	</xrdMeasurement>
</xrdMeasurements>
