<?xml version="1.0" encoding="UTF-8"?>
<xrdMeasurements xmlns="http://www.xrdml.com/XRDMeasurement/1.6" xmlns:xsi="http://www.w3.org/2001/XMLSchema-instance" xsi:schemaLocation="http://www.xrdml.com/XRDMeasurement/1.6 http://www.xrdml.com/XRDMeasurement/1.6/XRDMeasurement.xsd" status="Completed">
	<comment>
		<entry>Configuration=Chi-Phi-z stage, Owner=User-1, Creation date=2016/4/21 11:38:47</entry>
		<entry>Goniometer=Theta/Theta; Minimum step size 2Theta:0.0001; Minimum step size Omega:0.0001</entry>
		<entry>Sample stage=Chi-Phi-z stage 240 mm (reflection); Minimum step size Phi:0.01; Minimum step size Chi:0.01; Minimum step size Z:0.001</entry>
		<entry>Diffractometer system=EMPYREAN</entry>
		<entry>Measurement program=C:\PANalytical\Data Collector\Programs\Tony Zhu\XRR 1.xrdmp, Identifier={004D6FE0-4B10-4303-AD3A-861216BCB857}</entry>
		<entry>Batch program=C:\PANalytical\Data Collector\Programs\Tony Zhu\Batch_XRR 1.xrdmp, Identifier={4FC99300-DDE0-4F9C-A751-F10EE228F891}</entry>
	</comment>
	<sample type="To be analyzed">
		<id>Co-C(260914B)</id>
		<name></name>
		<preparedBy>User-1</preparedBy>
	</sample>
	<xrdMeasurement measurementType="Scan" status="Completed" sampleMode="Reflection">
		<comment>
			<entry>PHD Lower Level = 4.02 (keV), PHD Upper Level = 16.08 (keV)</entry>
		</comment>
		<usedWavelength intended="K-Alpha">
			<kAlpha1 unit="Angstrom">1.5405980</kAlpha1>
			<kAlpha2 unit="Angstrom">1.5444260</kAlpha2>
			<kBeta unit="Angstrom">1.3922500</kBeta>
			<ratioKAlpha2KAlpha1>0.5000</ratioKAlpha2KAlpha1>
		</usedWavelength>
		<incidentBeamPath>
			<radius unit="mm">240.00</radius>
			<xRayTube id="1010048" name="Empyrean Cu LFF HR (9430 033 7310x) DK417079">
				<tension unit="kV">40.0</tension>
				<current unit="mA">20.0</current>
				<anodeMaterial>Cu</anodeMaterial>
				<focus type="Line">
					<length unit="mm">12.0</length>
					<width unit="mm">0.4</width>
					<takeOffAngle unit="deg">4.4</takeOffAngle>
				</focus>
			</xRayTube>
			<xRayMirror id="27020001" name="Inc. Parallel beam X-ray mirror for Cu radiation" hybrid="false">
				<crystal type="Graded" shape="Parabolic">W/Si</crystal>
				<acceptanceAngle unit="deg">0.800</acceptanceAngle>
				<length unit="mm">55.3</length>
			</xRayMirror>
			<sollerSlit id="21010002" name="Soller slits 0.04 rad.">
				<opening unit="rad">0.0400</opening>
			</sollerSlit>
			<divergenceSlit id="22010011" name="Fixed slit 1/32°" xsi:type="fixedDivergenceSlitType">
				<distanceToSample unit="mm">140.00</distanceToSample>
				<height unit="mm">0.05</height>
			</divergenceSlit>
		</incidentBeamPath>
		<sampleOffset>
			<position axis="2Theta" unit="deg">0.0039</position>
			<position axis="Omega" unit="deg">-0.0043</position>
		</sampleOffset>
		<diffractedBeamPath>
			<radius unit="mm">240.00</radius>
			<sollerSlit id="21010002" name="Soller slits 0.04 rad.">
				<opening unit="rad">0.0400</opening>
			</sollerSlit>
			<detector id="7010020" name="PIXcel3D-Medipix3 1x1 detector" xsi:type="areaDetectorType">
				<phd>
					<lowerLevel unit="%">25.0</lowerLevel>
					<upperLevel unit="%">100.0</upperLevel>
				</phd>
				<mode>Receiving slit</mode>
				<activeChannelsEquatorial>1</activeChannelsEquatorial>
				<activeChannelsAxial>255</activeChannelsAxial>
				<pitchEquatorial unit="mm">0.05500</pitchEquatorial>
				<pitchAxial unit="mm">0.05500</pitchAxial>
				<readOutPeriod unit="seconds">0.050</readOutPeriod>
			</detector>
		</diffractedBeamPath>
		<scan appendNumber="0" mode="Continuous" scanAxis="2Theta-Omega" status="Completed">
			<header>
				<startTimeStamp>2026-09-16T10:43:59+08:00</startTimeStamp>
				<endTimeStamp>2026-09-16T11:01:42+08:00</endTimeStamp>
				<author>
					<name>admin</name>
				</author>
				<source>
					<applicationSoftware version="5.3">Data Collector</applicationSoftware>
					<instrumentControlSoftware version="7.8b 20160531">EMPYREAN</instrumentControlSoftware>
					<instrumentID>0000000011180024</instrumentID>
				</source>
			</header>
			<dataPoints>
				<positions axis="2Theta" unit="deg">
					<startPosition>0.0955</startPosition>
					<endPosition>15.9985</endPosition>
				</positions>
				<positions axis="Omega" unit="deg">
					<startPosition>0.04775</startPosition>
					<endPosition>7.99925</endPosition>
				</positions>
				<positions axis="Phi" unit="deg">
					<commonPosition>0.00</commonPosition>
				</positions>
				<positions axis="Chi" unit="deg">
					<commonPosition>-0.14</commonPosition>
				</positions>
				<positions axis="Z" unit="mm">
					<commonPosition>7.203</commonPosition>
				</positions>
				<commonCountingTime unit="seconds">0.176</commonCountingTime>
				<intensities unit="counts">557431 571792 594920 617487 639757 659122 675605 692440 711629 734581 760557 782461 804609 826185 841661 853496 869013 886439 908228 935927 962821 985739 1005491 1021643 1036657 1051418 1072047 1097341 1120373 1142046 1159069 1169997 1179146 1190823 1204902 1226024 1247472 1270014 1292248 1304803 1317793 1327623 1342299 1357048 1372848 1392717 1412617 1424269 1434201 1441258 1447694 1458423 1473106 1490967 1511447 1527106 1537241 1545562 1553503 1561714 1577349 1586396 1601957 1616582 1625482 1631633 1636261 1639844 1646707 1651868 1664497 1681210 1690214 1697103 1698599 1703322 1706026 1712552 1718032 1728372 1735284 1738419 1740898 1740825 1737103 1739687 1742348 1746003 1751597 1754535 1754041 1754716 1753182 1749360 1747510 1751050 1751166 1750520 1752836 1746017 1743211 1736604 1731454 1727248 1725827 1726033 1722184 1717426 1710713 1702598 1697265 1689581 1680162 1673457 1668340 1658672 1648522 1638029 1620360 1605350 1589792 1569194 1556148 1538389 1517202 1495123 1469758 1449251 1422835 1398214 1373675 1345950 1317067 1278104 1237658 1187031 1135265 1083712 1027930 973570 915355 852535 789573 728233 671522 618717 577009 542045 514472 490137 470913 453572 437515 421757 408019 390026 373749 353666 332885 310932 288050 266514 246415 226990 210319 196770 183350 173108 165656 159985 155712 152576 151266 151544 151856 152558 151959 151778 151358 148880 147613 144250 141379 136634 132109 125744 118881 113054 106071 100061 93546 87530 82200 76347 70955 66429 62685 59299 56412 54982 53329 52026 51933 52137 52325 52896 53656 54221 55307 56755 56855 57809 57993 57960 57845 57446 57138 56349 54605 52991 51130 49218 47397 44925 42871 40391 37843 35525 33006 30865 28992 27091 25201 23995 22756 21445 20668 19792 19597 19040 19012 19269 19255 19811 20531 20953 21513 21961 22780 23213 23397 24309 24720 24859 24930 25067 24956 24821 24618 24075 23726 23295 22443 21673 20519 19701 18928 17431 16429 15611 14587 13609 12594 11559 11040 10198 9685 9287 8795 8477 8092 7924 7762 7891 7926 8288 8493 8772 9040 9235 9797 10283 10620 10737 11129 11473 11635 11995 12061 12164 12235 12149 12192 12076 11846 11707 11088 10808 10538 10121 9701 9036 8700 7993 7443 6980 6344 5855 5462 5031 4753 4308 4191 3840 3515 3423 3268 3256 3155 3206 3295 3368 3469 3799 3869 4205 4463 4811 4989 5215 5468 5492 5824 6124 6227 6349 6490 6567 6668 6482 6555 6451 6243 6152 5985 5641 5576 5122 4980 4648 4490 4021 3900 3399 3064 3077 2667 2385 2127 1929 1831 1568 1525 1491 1355 1454 1324 1402 1472 1602 1651 1841 1961 2112 2284 2416 2613 2730 3026 2968 3227 3364 3516 3647 3729 3651 3761 3809 3749 3676 3666 3605 3374 3396 3319 3191 3004 2815 2638 2435 2231 2004 1888 1658 1530 1281 1239 1011 940 855 756 689 635 589 583 550 587 647 672 788 874 926 1060 1121 1253 1360 1426 1607 1684 1740 1968 1966 2148 2077 2279 2141 2162 2228 2206 2228 2198 2094 2050 1978 1976 1806 1783 1651 1471 1417 1231 1158 1066 972 814 746 643 530 475 425 384 333 263 279 279 226 280 313 319 394 414 475 570 668 713 758 901 902 970 1102 1186 1117 1180 1286 1266 1369 1342 1398 1424 1341 1317 1370 1333 1273 1225 1133 1092 995 1010 905 870 787 708 641 578 510 433 354 299 307 205 200 159 123 111 96 106 107 124 132 163 205 228 259 304 353 417 440 515 535 568 621 709 737 732 782 801 852 814 816 879 834 860 830 820 791 761 694 734 689 596 551 498 477 426 372 332 293 265 221 194 148 118 106 83 66 52 49 57 52 50 60 68 91 107 124 159 175 197 242 272 289 315 319 375 413 435 429 429 456 470 498 487 507 536 519 507 460 488 488 388 406 428 375 338 291 283 257 207 198 199 187 130 129 106 80 61 49 48 28 32 25 34 36 46 38 53 65 66 100 96 140 121 156 185 167 209 233 246 223 286 248 268 298 293 264 281 310 312 310 300 295 269 284 267 249 256 225 190 186 173 156 139 116 94 102 86 70 55 44 51 33 37 25 15 11 19 30 16 32 33 33 49 53 58 62 76 82 106 99 122 121 132 119 127 163 139 153 183 169 210 154 182 206 169 199 167 167 164 163 159 142 134 123 133 112 114 100 79 88 53 58 69 44 46 41 26 28 29 39 26 21 26 17 18 15 27 24 27 35 50 43 56 39 43 58 82 78 70 72 71 105 96 109 84 106 98 109 107 104 136 94 100 100 104 98 88 95 81 99 85 89 86 80 50 71 60 60 45 31 43 30 34 30 21 21 15 17 17 16 24 18 17 21 23 25 17 16 39 25 24 40 45 45 39 43 55 59 62 62 46 75 66 63 62 60 74 74 64 69 77 80 81 51 90 67 66 60 49 56 47 58 49 54 42 49 38 31 38 29 31 27 15 22 23 17 25 11 14 16 16 17 18 28 17 16 19 23 25 36 38 30 34 33 33 32 35 39 62 47 48 59 67 56 76 59 64 77 65 61 79 61 65 49 66 50 61 65 52 58 55 57 38 47 54 37 47 31 34 33 24 33 19 26 17 11 17 10 11 8 5 8 11 13 7 8 7 12 10 20 41 21 30 38 55 46 51 55 74 68 69 67 82 75 79 83 91 90 104 87 107 95 105 106 101 102 102 118 108 96 92 103 83 68 55 75 73 67 47 49 43 46 43 37 22 27 14 21 13 9 2 2 12 14 14 21 19 26 35 40 57 70 71 78 92 116 134 122 174 147 210 190 254 244 254 293 337 355 383 412 422 458 482 497 544 604 603 623 559 629 750 709 702 739 747 793 863 857 926 874 884 843 921 948 992 966 982 983 951 979 944 971 1050 926 1011 993 960 1070 989 992 1001 977 925 953 849 933 846 866 880 867 803 808 780 782 764 755 736 682 618 596 621 563 540 501 473 499 456 391 363 365 337 326 273 282 249 261 219 203 175 161 128 120 109 83 92 70 66 62 55 35 26 24 13 12 9 6 6 5 6 5 7 14 12 11 10 12 14 16 21 19 26 24 26 26 37 32 30 39 41 42 33 47 49 34 30 45 48 38 29 24 35 33 38 27 33 19 25 34 20 29 11 19 13 16 9 9 10 5 3 7 4 3 2 3 2 3 6 2 2 4 3 5 6 4 5 9 11 8 14 11 8 12 11 10 7 11 14 13 11 23 21 20 6 12 10 9 9 11 13 14 6 9 10 9 7 6 7 6 8 3 5 4 1 0 3 6 1 3 0 2 3 2 2 3 3 3 3 3 5 4 2 6 3 6 7 6 5 5 5 5 8 5 3 10 1 7 7 5 9 5 5 3 5 2 10 7 4 3 3 6 0 3 4 4 7 2 3 0 2 1 1 0 0 3 2 3 4 2 2 0 2 4 2 2 5 1 5 0 2 3 5 4 3 4 2 5 2 2 5 4 3 3 3 2 0 5 2 2 7 2 3 3 3 1 2 5 0 4 0 3 3 0 0 0 3 0 3 1 0 3 1 3 2 4 1 2 1 1 2 1 1 2 3 1 3 4 9 0 4 1 3 3 5 5 1 3 1 4 1 3 1 1 2 2 3 1 2 3 1 2 4 1 0 1 1 0 1 4 0 0 1 1 2 0 0 0 1 2 1 1 2 2 2 1 1 0 0 0 3 2 2 1 4 3 1 1 1 1 3 3 0 1 1 2 0 2 2 1 3 2 1 2 5 1 2 1 1 1 1 0 1 3 1 0 3 1 1 2 3 1 3 2 2 4 1 2 4 1 4 4 1 5 0 1 0 1 1 1 3 4 0 0 0 1 1 5 1 0 4 1 1 0 1 3 3 3 0 1 2 0 2 0 1 0 0 3 2 0 0 0 1 1 0 1 1 0 1 2 1 2 2 2 2 3 1 4 3 2 1 2 3 0 0 3 0 1 0 3 2 3 0 2 0 1 2 1 0 0 4 1 1 1 1 2 0 0 2 0 1 3 1 3 1 1 1 0 2 1 4 0 2 4 1 0 2 0 2 2 2 1 2 0 3 0 1 2 3 1 0 3 2 3 2 2 0 4 2 2 0 1 4 1 1 1 0 1 2 1 0 0 0 1 1 0 2 2 1 0 1 1 1 0 1 2 1 1 3 1 1 0 2 0 1 3 2 1 0 2 0 1 0 1 1 2 1 1 2 0 1 1 1 1 0 1 0 4 2 0 1 0 1 2 2 2 1 1 0 2 2 3 1 2 1 1 0 0 0 0 4 2 0 2 1 0 0 1 1 2 0 2 2 0 0 0 0 0 4 0 2 1 1 1 1 3 0 0 0 1 1 2 0 1 0 1 1 1 0 1 2 1 2 1 2 0 1 3 4 0 1 2 2 2 1 1 2 2 0 1 0 0 1 0 0 1 3 1 1 0 0 0 0 0 1 0 1 1 1 1 0 1 2 2 2 1 2 2 0 2 5 0 0 3 1 4 1 1 0 0 0 1 0 2 0 1 0 1 1 2 0 0 0 0 1 0 0 1 1 0 2 2 1 0 1 3 1 0 2 1 4 2 2 0 1 0 3 0 1 0 1 0 2 1 0 4 1 3 1 2 0 5 0 1 1 1 2 0 1 2 0 0 0 2 0 1 0 0 2 0 1 1 0 1 2 0 1 1 2 1 0 1 0 0 2 0 1 1 2 0 1 0 1 0 0 1 0 0 0 2 0 1 0 2 2 1 1 0 2 0 3 1 1 0 0 2 2 0 0 0 1 0 0 0 3 1 2 3 0 1 1 1 1 0 2 0 0 0 2 2 2 2 0 3 1 1 1 1 1 1 2 0 2 0 1 1 1 0 1 1 0 0 0 1 0 2 1 2 1 0 2 0 0 2 1 0 0 0 1 0 1 0 0 0 0 1 0 2 1 1 0 0 0 2 0 3 1 1 0 0 2 0 2 0 1 0 1 0 1 3 0 1 2 0 0 1 0 1 3 0 2 1 1 0 3 1 0 1 0 2 0 0 0 0 0 1 2 0 1 2 0 1 0 4 0 0 0 0 1 1 0 0 0 1 0 1 1 1 0 0 0 1 0 3 1 1 2 0 0 0 0 2 0 0 3 0 0 0 0 0 0 0 2 0 1 1 1 0 2 0 0 1 1 0 0 1 0 2 0 1 2 0 1 1 2 0 2 4 1 2 1 0 0 0 2 3 0 2 1 3 0 3 1 3 1 1 1 0 1 0 1 1 1 1 0 2 1 2 2 2 5 3 3 1 1 3 0 0 1 1 0 1 1 0 0 0 0 1 1 2 3 2 2 0 0 2 2 2 3 0 3 1 1 1 2 2 0 0 0 0 3 3 0 1 2 1 0 0 1 0 0 0 1 0 1 1 2 0 1 0 2 0 0 1 0 0 3 0 1 2 2 1 1 0 0 0 0 1 1 0 0 0 2 0 1 0 0 1 0 1 0 0 2 1 0 2 1 1 0 0 0 0 1 0 0 1 0 0 0 0 0 2 0 0 1 0 1 2 0 0 0 1 2 0 0 1 0 0 0 1 1 0 1 3 2 1 2 1 2 1 0 0 0 0 0 1 0 0 1 5 4 1 0 0 2 1 2 2 0 1 1 0 0 0 1 1 0 1 0 0 2 0 0 0 0 1 0 1 0 3 2 0 0 0 2 1 1 0 1 0 0 1 0 0 1 1 2 0 0 1 2 0 0 0 0 0 0 1 0 1 1 1 0 1 4 1 0 1 1 2 0 2 2 0 0 2 0 0 1 0 0 3 1 0 0 1 0 1 0 1 0 0 0 0 0 2 0 3 1 0 1 0 0 1 1 0 1 0 1 1 0 0 0 0 0 0 0 3 0 0 0 2 0 1 0 0 0 0 1 0 0 0 1 1 0 0 2 0 1 0 0 0 0 0 1 0 1 0 2 0 0 0 0 0 0 0 0 0 0 0 0 0 0 0 1 0 0 1 0 0 0 1 0 0 0 0 0 0 0 0 1 0 0 1 0 1 1 1 0 1 1 1 0 0 1 1 0 0 2 0 2 1 1 0 0 0 0 1 0 0 0 0 1 0 1 0 1 1 0 0 0 1 1 0 0 0 1 0 0 0 2 0 0 1 2 0 1 0 0 0 0 0 1 0 1 0 0 0 0 0 0 0 0 0 1 0 1 1 0 1 0 2 2 0 2 0 0 0 0 1 0 0 0 1 0 0 0 3 1 0 0 1 1 1 1 1 0 0 1 0 0 0 1 0 0 0 1 0 0 0 0 1 0 0 1 0 0 0 1 0 1 0 0 0 2 1 0 0 2 0 1 1 1 1 0 1 1 1 1 0 0 1 1 0 0 0 1 0 2 2 1 2 3 1 0 1 1 2 2 1 0 0 0 0 0 0 0 1 0 0 0 0 0 3 0 0 0 0 0 1 2 1 0 0 0 2 0 0 1 0 0 0 0 0 1 1 0 1 1 1 0 0 0 1 2 0 1 0 1 3 1 1 1 1 1 2 0 0 0 0 1 0 2 0 0 0 1 0 1 1 0 0 1 0 2 1 1 1 0 0 1 1 1 0 0 2 0 0 1 1 0 0 0 0 1 0 1 0 0 1 0 0 1 1 0 0 0 0 0 0 0 0 0 1 2 2 0 1 0 1 0 0 2 0 1 0 0 1 0 2 0 1 0 1 1 1 0 0 2 0 2 1 0 1 1 0 0 0 0 1 0 1 3 0 1 2 0 0 0 0 1 0 1 1 0 0 1 2 0 2 0 0 0 0 0 1 1 2 0 0 1 0 0 1 0 0 0 1 0 0 2 0 1 0 2 0 0 1 1 3 1 0 0 0 0 1 2 2 0 0 0 1 0 0 1 1 0 0 0 0 1 0 0 0 0 0 0 3 1 1 0 1 0 0 0 1 0 0 0 1 1 0 1 3 2 1 0 0 0 2 0 0 0 1 0 0 0 0 0 1 1 0 0 0 0 1 1 0 0 1 0 0 1 0 0 1 0 0 0 1 0 2 0 1 1 1 0 1 0 0 2 1 1 0 2 1 1 0 1 0 1 0 0 0 1 0 0 1 1 1 0 0 0 1 0 1 0 0 1 0 1 0 0 0 0 0 0 2 0 1 2 1 0 0 0 0 0 0 0 0 0 0 0 1 0 0 0 0 0 1 0 0 0 1 0 0 0 0 1 0 1 0 0 2 1 2 0 0 0 0 1 1 2 3 0 0 2 0 0 0 0 0 1 0 0 0 1 1 0 1 0 0 0 0 1 0 0 1 0 0 1 1 1 0 0 1 0 1 0 0 0 1 2 0 1 0 1 2 0 0 0 0 2 1 0 0 2 1 0 0 0 0 0 1 0 1 0 0 0 0 0 0 2 2 0 0 0 0 1 0 2 0 0 0 0 1 0 0 2 0 0 0 0 1 0 2 0 0 0 0 1 0 1 0 0 0 0 0 0 0 0 0 0 1 0 0 0 1 0 0 0 1 0 1 0 0 1 0 2 0 0 1 0 0 0 3 1 0 0 1 0 1 0 1 0 1 0 0 1 1 0 2 0 0 1 0 0 0 1 0 1 1 1 0 0 0 1 0 0 2 0 0 1 0 1 0 0 1 0 1 0 1 0 0 0 1 0 0 0 1 2 2 0 0 0 1 0 1 0 0 0 3 0 2 0 0 1 0 1 0 0 0 0 2 0 1 0 1 0 2 0 0 0 0 0 0 0 0 0 0 0 0 1 0 0 2 0 1 0 1 1 0 1 0 0 2 0 4 2 1 0 0 0 1 0 1 0 0 1 0 0 0 1 0 0 0 0 2 0 0 0 0 0 0 0 1 0 0 1 0 1 0 0 0 0 0 1 0 0 0 0 0 0 1 0 0 0 0 1 1 0 0 0 1 0 0 1 3 0 0 1 2 2 0 1 1 1 1 1 0 2 0 0 0 0 0 0 1 0 0 0 0 0 0 1 2 0 1 1 0 1 0 1 0 1 0 2 2 0 0 0 0 0 0 1 1 0 0 0 2 0 0 0 0 1 0 0 0 1 0 0 1 0 0 0 0 0 0 0 0 2 1 0 2 0 0 0 0 2 1 2 0 2 0 0 1 2 0 1 2 0 0 0 0 1 0 0 0 0 0 0 0 1 0 0 0 0 1 0 0 1 0 1 0 0 0 1 0 1 0 0 1 0 1 0 1 0 0 1 0 0 0 1 2 0 0 0 1 0 1 0 0 1 0 2 1 1 1 0 0 3 0 0 1 1 0 1 1 0 0 0 0 0 1 1 1 0 0 0 0 0 0 0 0 0 0 0 1 1 0 0 0 2 0 0 0 1 1 0 0 0 0 1 0 0 0 0 2 1 1 1 0 0 0 1 0 0 0 1 1 1 1 0 1 1 0 1 0 0 0 2 2 0 0 1 0 0 1 1 1 0 0 0 0 0 0 0 0 0 2 1 0 0 0 0 0 0 0 0 0 0 0 0 0 1 0 0 1 0 0 0 0 0 0 0 2 0 1 0 1 0 1 0 0 1 0 0 0 1 0 0 0 0 0 0 0 0 0 0 0 0 1 0 0 0 0 0 0 1 0 2 2 0 0 0 1 0 0 0 0 0 1 1 0 0 0 1 0 0 0 0 0 0 0 0 0 0 1 0 0 1 0 1 0 0 1 0 0 0 1 2 0 0 1 0 1 1 0 0 0 0 2 0 0 1 0 0 1 0 0 0 0 0 0 0 0 0 1 0 1 0 0 3 0 1 0 1 0 1 0 1 1 0 1 0 1 0 0 2 0 1 0 0 0 0 0 0 2 0 0 0 0 0 0 0 3 0 1 0 0 0 0 0 0 1 0 0 1 0 0 0 0 1 2 0 1 0 0 0 0 0 0 0 0 2 0 0 1 0 0 1 0 0 0 0 0 0 0 0 1 0 1 0 2 0 0 0 1 0 0 0 0 0 1 0 1 1 1 0 0 0 0 1 0 0 0 3 1 0 2 0 1 0 0 0 0 0 1 1 0 0 1 2 1 0 0 0 1 0 0 0 0 1 0 1 1 0 1 0 0 0 1 0 1 0 0 0 0 1 0 2 1 1 0 0 1 0 1 0 0 1 1 0 1 0 0 0 0 0 1 0 0 0 1 0 1 1 0 0 0 0 1 2 1 0 0 1 0 0 0 1 0 0 0 1 1 0 0 1 1 0 0 0 0 0 0 0 0 0 0 1 0 0 0 0 0 0 1 1 2 0 0 0 0 0 0 0 0 0 0 3 0 2 0 0 0 0 0 0 2 0 0 1 1 0 0 0 3 1 0 0 0 0 1 0 0 1 1 0 0 0 0 0 0 0 1 1 0 0 0 0 0 0 0 0 1 1 1 0 0 0 1 1 0 0 0 0 1 0 0 0 1 0 0 2 0 0 3 0 0 0 0 0 0 0 0 0 1 0 1 0 0 1 0 0 0 2 0 1 1 2 1 1 0 0 0 0 0 2 2 0 0 2 0 0 0 0 0 0 1 1 0 0 0 0 0 0 0 0 0 0 0 1 1 0 0 0 1 1 0 0 0 0 0 0 1 0 0 1 0 0 0 0 1 0 0 0 1 0 0 0 0 0 0 0 0 0 1 1 2 0 1 1 0 0 0 0 0 2 0 0 1 1 0 0 0 0 1 0 0 2 1 0 2 1 0 1 1 1 1 1 0 0 3 0 0 0 0 1 1 0 0 0 1 0 1 2 0 1 0 0 0 0 0 0 0 1 1 0 0 0 0 0 1 0 0 0 1 0 0 0 0 1 2 1 0 0 0 0 0 1 1 0 0 0 0 0 0 0 0 0 0 0 0 0 0 0 0 1 1 0 0 0 0 0 1 0 0 0 0 1 0 0 0 3 0 0 0 0 0 0 0 0 0 2 0 0 0 0 0 1 0 1 0 0 0 0 1 0 0 0 0 1 0 0 0 0 1 0 1 0 0 1 2 0 0 0 0 0 0 0 0 0 0 1 0 1 0 0 0 1 1 0 0 1 1 0 1 0 1 0 0 2 0 0 0 0 0 1 1 0 0 0 0 0 0 1 1 0 1 0 0 0 0 0 0 1 0 0 1 0 0 0 1 0 1 1 0 0 0 0 1 1 0 0 0 0 0 3 0 0 0 1 2 1 0 1 0 0 0 1 1 1 0 1 0 0 0 0 0 0 1 1 1 1 0 1 0 0 0 0 0 0 0 0 1 0 0 0 0 0 0 0 0 2 1 3 2 0 0 0 1 2 0 1 1 1 0 0 2 0 2 0 0 0 1 1 0 0 1 0 0 0 0 0 1 0 0 0 0 0 0 0 1 0 0 0 1 0 0 0 2 1 0 1 2 0 0 1 0 0 1 0 2 0 1 0 0 0 0 0 0 0 0 2 0 0 0 2 0 0 0 0 0 0 0 0 0 1 0 0 2 1 0 0 1 2 0 0 0 0 0 0 1 0 3 0 1 0 1 0 0 0 1 0 1 0 0 0 1 0 0 0 0 1 0 0 0 0 1 2 1 0 0 1 0 0 0 0 0 0 0 0 0 0 0 0 1 0 0 0 1 1 0 0 0 1 0 0 0 0 1 0 0 1 0 0 0 0 1 1 0 0 0 1 0 0 1 0 0 1 0 0 0 1 1 1 0 2 1 0 0 0 0 0 0 0 1 0 1 0 1 1 0 0 1 0 1 0 0 1 1 0 0 0 1 0 2 0 0 0 2 0 0 0 0 1 0 0 0 0 0 0 0 0 0 0 0 0 0 0 0 1 1 0 0 0 0 0 0 0 0 0 0 0 0 0 0 0 1 0 0 0 0 1 0 0 0 0 1 0 0 0 0 0 0 1 0 0 0 0 0 1 0 0 0 0 0 0 0 2 0 0 0 0 0 0 0 0 1 0 0 0 0 1 1 0 0 0 0 0 0 0 0 1 0 2 0 0 0 1 1 0 0 2 2 0 0 0 0 0 0 1 1 0 0 0 1 1 0 0 1 0 0 0 0 0 0 1 0 1 0 0 1 1 0 0 0 0 0 0 0 0 0 0 1 0 1 0 0 2 0 0 1 0 0 1 0 0 0 1 1 0 1 0 1 0 0 0 0 0 0 0 0 0 0 0 0 0 0 0 0 1 0 1 0 0 0 0 0 2 1 0 1 0 0 0 1 0 1 1 0 3 0 0 1 0 0 0 0 1 1 0 1 0 0 0 0 1 2 0 0 2 0 0 0 0 1 0 0 0 1 0 0 0 0 0 1 2 0 0 0 0 0 0 0 0 0 0 0 1 1 1 0 0 0 1 1 0 0 0 0 0 0 0 0 0 0 0 0 1 0 1 1 0 0 0 0 0 0 0 0 0 0 0 0 0 1 0 0 0 1 0 0 0 0 0 0 0 0 0 1 1 0 0 1 1 0 2 0 0 0 0 1 0 0 0 0 0 0 0 0 1 0 0 0 0 0 2 0 0 0 0 1 2 1 1 0 0 0 0 0 1 0 0 0 0 0 1 0 0 1 0 0 1 0 0 0 0 0 0 0 0 1 0 0 2 2 0 0 1 1 2 0 0 0 0 0 1 1 1 0 0 0 0 0 1 0 0 1 0 1 0 0 0 0 2 0 0 0 0 1 0 0 0 0 1 0 0 0 0 1 0 0 0 0 0 0 0 0 0 1 0 0 0 1 0 1 0 0 0 0 0 0 0 0 0 0 1 0 0 0 0 0 0 1 0 0 0 0 0 0 0 0 0 0 0 0 0 1 0 1 1 0 0 2 0 0 1 1 0 0 0 1 0 0 1 1 0 0 0 0 1 0 0 1 0 0 1 0 2 1 0 0 0 1 3 0 0 1 0 0 1 1 0 0 1 1 2 0 1 0 0 0 0 0 0 0 0 0 2 0 0 0 0 0 0 1 2 0 0 1 0 0 2 0 2 2 1 1 0 0 0 0 0 1 0 1 0 0 1 0 0 1 0 1 1 1 0 0 0 0 1 0 0 0 0 0 0 0 0 0 0 0 1 0 2 0 0 0 0 1 0 0 1 2 1 0 0 0 0 0 0 0 0 0 0 2 0 1 0 0 0 1 0 1 0 1 0 0 0 0 0 0 0 0 0 1 0 0 0 0 0 2 0 0 0 0 0 0 0 0 0 0 0 0 1 1 0 1 1 0 0 0 0 0 0 0 0 1 1 1 0 0 0 0 0 1 0 1 1 0 0 0 0 0 0 0 1 0 0 0 0 0 0 0 1 0 0 0 0 2 0 0 0 1 1 0 0 0 1 0 0 0 0 1 1 1 0 0 0 0 0 0 0 2 0 0 0 0 0 0 0 1 0 1 0 0 0 1 0 2 1 0 0 0 0 1 0 0 0 0 0 0 0 1 0 0 1 0 2 0 0 1 0 0 0 1 1 0 0 0 0 0 3 0 0 0 1 0 0 1 0 0 1 0 0 0 1 0 0 0 0 0</intensities>
			</dataPoints>
		</scan>
	</xrdMeasurement>
</xrdMeasurements>
