<?xml version="1.0" encoding="UTF-8"?>
<xrdMeasurements xmlns="http://www.xrdml.com/XRDMeasurement/1.6" xmlns:xsi="http://www.w3.org/2001/XMLSchema-instance" xsi:schemaLocation="http://www.xrdml.com/XRDMeasurement/1.6 http://www.xrdml.com/XRDMeasurement/1.6/XRDMeasurement.xsd" status="Aborted">
	<comment>
		<entry>Configuration=Chi-Phi-z stage, Owner=User-1, Creation date=2016/4/21 11:38:47</entry>
		<entry>Goniometer=Theta/Theta; Minimum step size 2Theta:0.0001; Minimum step size Omega:0.0001</entry>
		<entry>Sample stage=Chi-Phi-z stage 240 mm (reflection); Minimum step size Phi:0.01; Minimum step size Chi:0.01; Minimum step size Z:0.001</entry>
		<entry>Diffractometer system=EMPYREAN</entry>
		<entry>Measurement program=C:\PANalytical\Data Collector\Programs\Tony Zhu\XRR-1.xrdmp, Identifier={72757DA2-AD0C-4AFE-9BF6-93D5F4C18FC8}</entry>
		<entry>Batch program=C:\PANalytical\Data Collector\Programs\Tony Zhu\Batch_XRR-1.xrdmp, Identifier={395C2B64-CBC9-4195-8279-CEEDB080494D}</entry>
	</comment>
	<sample type="To be analyzed">
		<id>Co-C(260916A)-XRR</id>
		<name></name>
		<preparedBy>User-1</preparedBy>
	</sample>
	<xrdMeasurement measurementType="Scan" status="Aborted" sampleMode="Reflection">
		<comment>
			<entry>PHD Lower Level = 4.02 (keV), PHD Upper Level = 16.08 (keV)</entry>
		</comment>
		<usedWavelength intended="K-Alpha">
			<kAlpha1 unit="Angstrom">1.5405980</kAlpha1>
			<kAlpha2 unit="Angstrom">1.5444260</kAlpha2>
			<kBeta unit="Angstrom">1.3922500</kBeta>
			<ratioKAlpha2KAlpha1>0.5000</ratioKAlpha2KAlpha1>
		</usedWavelength>
		<incidentBeamPath>
			<radius unit="mm">240.00</radius>
			<xRayTube id="1010048" name="Empyrean Cu LFF HR (9430 033 7310x) DK417079">
				<tension unit="kV">40.0</tension>
				<current unit="mA">20.0</current>
				<anodeMaterial>Cu</anodeMaterial>
				<focus type="Line">
					<length unit="mm">12.0</length>
					<width unit="mm">0.4</width>
					<takeOffAngle unit="deg">4.4</takeOffAngle>
				</focus>
			</xRayTube>
			<xRayMirror id="27020001" name="Inc. Parallel beam X-ray mirror for Cu radiation" hybrid="false">
				<crystal type="Graded" shape="Parabolic">W/Si</crystal>
				<acceptanceAngle unit="deg">0.800</acceptanceAngle>
				<length unit="mm">55.3</length>
			</xRayMirror>
			<sollerSlit id="21010002" name="Soller slits 0.04 rad.">
				<opening unit="rad">0.0400</opening>
			</sollerSlit>
			<divergenceSlit id="22010011" name="Fixed slit 1/32°" xsi:type="fixedDivergenceSlitType">
				<distanceToSample unit="mm">140.00</distanceToSample>
				<height unit="mm">0.05</height>
			</divergenceSlit>
		</incidentBeamPath>
		<sampleOffset>
			<position axis="2Theta" unit="deg">0.0038</position>
			<position axis="Omega" unit="deg">0.0926</position>
		</sampleOffset>
		<diffractedBeamPath>
			<radius unit="mm">240.00</radius>
			<sollerSlit id="21010002" name="Soller slits 0.04 rad.">
				<opening unit="rad">0.0400</opening>
			</sollerSlit>
			<detector id="7010020" name="PIXcel3D-Medipix3 1x1 detector" xsi:type="areaDetectorType">
				<phd>
					<lowerLevel unit="%">25.0</lowerLevel>
					<upperLevel unit="%">100.0</upperLevel>
				</phd>
				<mode>Receiving slit</mode>
				<activeChannelsEquatorial>1</activeChannelsEquatorial>
				<activeChannelsAxial>255</activeChannelsAxial>
				<pitchEquatorial unit="mm">0.05500</pitchEquatorial>
				<pitchAxial unit="mm">0.05500</pitchAxial>
				<readOutPeriod unit="seconds">0.050</readOutPeriod>
			</detector>
		</diffractedBeamPath>
		<scan appendNumber="0" mode="Continuous" scanAxis="2Theta-Omega" status="Aborted">
			<header>
				<startTimeStamp>2026-09-17T12:41:13+08:00</startTimeStamp>
				<endTimeStamp>2026-09-17T12:53:14+08:00</endTimeStamp>
				<author>
					<name>admin</name>
				</author>
				<source>
					<applicationSoftware version="5.3">Data Collector</applicationSoftware>
					<instrumentControlSoftware version="7.8b 20160531">EMPYREAN</instrumentControlSoftware>
					<instrumentID>0000000011180024</instrumentID>
				</source>
			</header>
			<dataPoints>
				<positions axis="2Theta" unit="deg">
					<startPosition>0.1015</startPosition>
					<endPosition>10.8535</endPosition>
				</positions>
				<positions axis="Omega" unit="deg">
					<startPosition>0.05075</startPosition>
					<endPosition>5.42675</endPosition>
				</positions>
				<positions axis="Phi" unit="deg">
					<commonPosition>0.00</commonPosition>
				</positions>
				<positions axis="Chi" unit="deg">
					<commonPosition>-1.00</commonPosition>
				</positions>
				<positions axis="Z" unit="mm">
					<commonPosition>7.141</commonPosition>
				</positions>
				<commonCountingTime unit="seconds">0.176</commonCountingTime>
				<intensities unit="counts">82968 85198 87800 89715 90960 91958 94277 96676 98992 101892 103473 105918 106938 108075 110314 111189 113275 115917 118213 119630 121734 123351 124288 125436 127635 129740 131711 134370 136643 138022 138067 138650 139787 141100 144151 145637 147718 149208 150613 150818 151431 152952 156106 157983 160259 161218 162806 163042 163159 164072 164347 167758 169300 170882 172783 173798 173598 174768 175590 177758 179862 182182 183746 184341 183283 183553 184549 185239 187037 190024 191456 192044 192655 192909 193401 194253 195600 198161 199528 201684 202605 202294 200564 200604 201445 202635 204970 206377 206864 206837 207023 208113 207134 209578 210663 212578 213258 213235 214483 212677 212205 211336 212124 215190 215065 215028 214473 214648 214340 213743 213266 214495 216281 216126 215673 214497 212213 209995 209326 208671 209791 209004 208103 207513 204034 201536 199968 198220 195810 193826 191532 188350 183215 179452 173042 167340 163074 158059 151413 145691 137568 131975 124113 116898 110187 103783 97507 91906 85812 80528 75205 70701 66597 63507 60166 57051 54296 52004 49088 46312 43979 41450 39801 37636 36184 34864 33617 32326 31672 30493 29779 28881 27937 26578 26080 24709 23053 21841 20549 20076 18917 18433 17904 17654 17746 17200 17451 16779 16730 16665 16300 15456 15143 14281 13274 12771 11969 11346 10806 10140 10111 9653 9551 9735 9583 9812 10004 10068 10015 9970 10015 9562 9423 9105 8530 8020 7516 6925 6641 6079 5787 5646 5429 5265 5411 5441 5620 5693 5916 5920 6056 6076 6146 6144 5960 5750 5586 5307 4869 4621 4302 4001 3727 3441 3332 3147 3013 3060 3001 3129 3261 3327 3425 3645 3726 3858 4008 3987 3948 3864 3696 3581 3467 3216 3012 2692 2468 2242 2106 2027 1784 1820 1685 1712 1742 1800 1953 2065 2234 2284 2348 2515 2577 2684 2606 2574 2443 2466 2188 2187 1942 1796 1656 1421 1357 1183 1166 1032 989 987 1056 1119 1154 1287 1361 1507 1645 1725 1731 1814 1877 1852 1813 1796 1715 1623 1452 1407 1203 1092 1024 887 792 694 652 603 597 587 639 691 725 938 990 1063 1137 1196 1323 1262 1393 1369 1297 1310 1170 1082 1102 919 809 764 629 570 496 457 381 338 375 387 413 472 516 606 611 708 798 833 964 999 970 1034 1060 970 939 843 848 777 697 570 552 454 406 346 297 234 269 250 257 282 308 394 412 522 559 610 720 735 825 776 829 796 834 729 720 671 645 591 442 404 370 308 247 195 197 169 187 174 190 237 308 322 360 442 474 548 575 618 638 688 627 698 691 706 593 566 545 522 444 331 321 253 209 185 152 148 116 152 156 189 240 278 296 348 411 500 493 572 571 610 636 604 654 630 562 541 498 415 380 298 254 224 188 152 140 117 106 124 133 158 225 248 296 360 365 390 478 590 608 609 642 617 601 590 595 528 509 422 425 326 311 276 191 148 137 142 105 91 135 154 193 231 304 378 438 474 510 652 666 668 662 682 731 681 679 633 592 540 484 450 424 289 258 239 187 146 140 147 148 193 222 313 403 463 538 630 786 806 853 936 988 1022 1088 1080 1029 1051 1049 974 853 806 723 624 494 411 374 299 270 273 257 369 422 538 598 788 985 1040 1336 1481 1705 1944 2211 2204 2371 2374 2516 2448 2404 2289 2204 2032 1903 1633 1504 1269 1147 980 855 892 916 1152 1411 1815 2379 3066 3978 5108 6406 7781 9334 10818 12601 14653 16618 18552 21113 22894 24979 26618 28571 30359 32199 33727 35045 36264 37300 38101 38356 39016 38827 38725 38569 37657 36897 35804 35034 33382 31478 29766 28359 26383 24692 22665 20731 18711 16719 14887 13126 11300 9750 8174 6863 5676 4634 3672 2864 2199 1607 1257 931 770 650 682 703 803 927 1042 1197 1360 1470 1571 1687 1703 1785 1764 1768 1704 1673 1526 1338 1250 1108 953 812 667 514 457 332 243 221 177 150 198 171 187 205 282 312 373 430 447 487 548 555 538 559 557 561 534 500 464 407 404 344 266 221 211 170 123 91 90 70 61 58 66 80 122 122 151 169 168 181 241 271 254 295 280 276 246 281 232 219 222 167 141 139 97 101 70 70 41 45 32 38 37 35 44 53 62 79 86 86 112 131 131 147 143 137 154 122 132 134 108 104 115 100 79 84 52 39 30 36 27 23 19 26 20 18 39 40 43 57 74 63 74 72 88 95 91 101 73 87 75 86 70 69 57 50 51 42 22 28 14 18 13 15 8 12 17 16 26 22 39 42 42 46 57 54 61 61 50 78 55 53 50 38 37 33 36 33 20 20 18 22 11 13 8 17 8 8 21 21 19 24 27 35 43 29 43 47 39 52 41 32 29 33 32 29 35 29 16 8 11 13 17 10 13 8 7 10 11 10 21 17 11 20 20 21 22 31 31 33 33 33 30 26 28 38 14 24 20 20 16 10 18 11 7 3 7 8 12 14 10 4 8 10 15 4 11 17 16 20 16 19 25 20 27 23 19 15 19 16 15 13 8 10 4 9 7 9 2 5 2 9 5 7 10 10 8 7 11 14 11 12 20 17 20 16 11 13 13 12 16 16 7 11 10 6 3 10 9 3 2 4 4 7 4 5 9 10 7 5 13 11 15 8 13 15 11 14 8 18 11 4 1 6 4 4 4 4 4 7 5 3 8 2 5 4 5 4 8 7 7 6 10 9 4 8 13 14 12 11 7 7 10 5 8 8 4 6 3 5 10 5 2 5 4 5 8 9 7 7 5 6 4 8 6 6 9 7 4 12 5 11 9 10 7 6 4 4 7 5 5 3 1 1 4 2 7 3 4 7 2 4 2 9 13 5 8 2 10 7 4 9 7 7 3 6 5 7 3 11 6 4 7 5 4 0 4 4 3 5 7 5 4 5 7 4 6 4 7 4 2 5 4 7 4 6 6 3 9 8 11 3 5 2 5 1 2 2 6 4 7 1 3 3 4 2 3 2 5 4 8 4 7 4 10 8 4 2 4 6 4 4 2 1 3 3 2 3 3 3 1 4 1 1 2 2 4 3 4 3 4 4 3 2 7 6 5 8 6 3 3 7 8 3 5 7 2 6 2 2 2 2 3 1 0 1 3 5 5 8 2 5 7 4 8 8 4 7 5 4 8 6 7 8 5 7 5 5 6 6 4 5 4 2 5 9 6 4 10 8 7 13 25 20 21 26 25 36 37 44 44 46 36 41 58 48 57 60 86 66 82 66 86 78 74 76 82 70 53 55 50 59 57 50 52 43 36 42 27 27 32 21 21 18 11 12 10 8 8 4 3 2 6 7 12 10 4 8 3 5 10 10 9 8 6 6 4 4 4 7 7 2 2 3 7 1 4 2 2 5 2 2 3 3 7 1 4 1 3 3 4 2 4 2 5 4 4 5 2 8 3 2 1 1 0 1 4 2 4 3 3 3 2 2 2 1 3 4 4 4 0 3 2 3 1 0 4 1 1 3 2 1 2 2 3 1 1 3 0 1 2 2 3 2 1 2 1 0 1 3 1 0 3 2 1 2 4 3 1 2 1 2 1 1 2 1 5 1 3 1 2 1 3 2 3 1 3 2 2 0 0 6 0 1 0 2 2 1 4 0 2 3 1 1 0 1 0 0 2 1 2 1 1 1 1 1 0 1 1 0 3 2 0 0 2 4 1 2 1 1 0 0 0 0 1 1 2 0 0 0 2 4 1 0 1 0 1 0 0 0 0 1 1 1 2 0 1 0 2 3 0 1 1 1 2 0 1 4 0 1 0 0 0 1 2 1 0 0 0 0 1 1 1 0 0 0 0 4 1 0 1 1 1 2 1 0 1 0 1 2 1 0 1 1 0 2 0 1 1 0 0 0 1 2 1 0 0 2 4 1 1 1 2 0 1 1 0 1 0 0 0 2 2 0 2 1 0 0 0 0 0 0 1 0 0 0 0 1 2 1 1 1 1 0 0 1 1 0 0 1 0 0 0 0 0 1 2 2 1 1 2 0 0 0 0 2 2 0 1 0 0 1 0 0 0 0 2 0 0 0 0 1 2 1 1 0 0 1 0 0 1 2 1 1 0 0 1 0 0 2 1 0 0 0 1 2 0 2 0 1 0 1 0 2 0 0 0 0 0 0 0 0 0 1 0 1 0 2 0 0 1 0 0 1 0 0 0 1 0 2 0 0 0 1 1 0 1 0 0 1 0 0 1 0 1 1 1 1 0 0 0 1 0 1 0 1 0 0 0 0 3 0 1 1 0 0 1 0 1 1 0 3 0 3 1 1 0 1 0 1 0 0 0 0 1 0 0 0 0 1 1 0 0 2 1 0 0 0 0 0 1 3 1 0 1 0 1 1 2 2 0 0 0 4 1 0 0 0 0 2 0 2 1 0 0 1 3 0 1 1 3 1 1 0 1 0 0 2 1 1 1 1 0 0 1 0 1 0 0 1 1 0 1 0 0 1 0 0 0 0 0 1 0 1 2 0 2 1 0 2 0 1 0 0 1 0 0 0 0 1 1 0 1 0 0 0 2 0 2 0 0 0 2 0 1 1 0 0 0 1 0 2 0 0 0 0 0 0 0 1 1 2 1 2 0 2 1 0 1 1 2 1 1 1 1 2 1 0 2 2 2 2 0 2 4 5 3 3 3 8 1 8 4 2 0 2 3 5 4 5 3 2 0 4 4 2 4 2 1 3 2 1 0 0 0 3 0 2 2 0 3 0 0 1 0 0 1 1 0 1 0 0 0 0 0 1 1 2 2 3 0 0 0 2 3 1 0 2 2 1 1 0 0 0 0 1 0 1 1 0 0 0 0 0 1 0 2 1 0 1 0 2 0 1 0 0 0 1 2 1 0 1 0 1 1 1 0 0 1 0 1 0 0 0 0 0 0 1 0 1 0 2 1 0 1 0 0 0 4 2 0 2 2 0 0 2 0 0 0 0 2 1 0 0 0 0 1 0 2 0 0 0 3 0 0 0 2 2 1 1 1 1 0 0 1 1 1 1 0 4 2 0 0 0 0 0 0 1 0 0 3 0 0 0 1 0 0 2 0 0 0 1 1 0 0 2 1 0 1 0 1 1 0 0 1 0 0 0 1 0 0 1 0 4 0 0 0 0 2 0 0 0 0 1 1 0 0 1 1 0 0 1 0 1 1 2 1 0 2 1 0 1 0 0 1 0 0 0 3 1 0 1 1 0 0 0 0 1 0 0 1 0 0 0 0 0 0 0 2 0 1 1 0 0 1 0 1 2 1 2 1 0 0 2 0 2 2 0 0 0 0 0 0 1 0 1 2 1 0 1 0 2 3 0 0 1 2 1 1 0 0 0 0 1 0 1 1 0 0 0 3 1 0 0 0 0 0 1 0 0 0 0 0 2 0 0 1 0 0 0 2 0 0 0 0 1 0 1 1 1 0 0 0 0 0 0 0 0 0 1 1 0 1 3 0 0 2 0 1 0 0 0 0 0 0 0 0 0 0 2 0 1 0 0 0 1 0 1 0 0 0 1 0 1 1 0 0 0 0 1 2 0 0 0 0 1 1 2 1 0 0 2 1 0 0 0 0 0 0 1 0 1 0 0 0 2 0 1 0 0 0 1 0 1 0 0 0 0 0 1 0 0 0 0 1 0 0 0 0 0 0 0 0 0 1 2 1 0 0 1 0 0 4 1 1 1 0 1 1 1 0 1 2 1 0 1 1 0 0 1 0 0 1 0 0 0 0 0 1 0 0 0 0 0 0 0 0 0 1 0 0 0 0 0 0 0 0 0 0 0 0 0 0 1 0 0 0 1 0 2 0 0 0 0 0 0 1 1 0 0 0 0 1 1 0 0 3 0 0 2 0 0 0 0 1 0 1 1 1 3 1 1 0 0 1 0 0 1 0 0 1 1 0 0 0 1 0 0 1 0 0 0 0 0 0 1 0 0 0 0 1 0 0 0 0 0 0 0 1 0 0 1 0 0 0 0 1 0 1 0 0 1 0 0 0 0 0 0 2 1 1 2 0 0 0 0 1 0 1 0 1 0 1 0 1 0 0 0 0 0 0 0 1 1 0 0 0 1 0 0 1 0 0 0 2 1 0 0 1 0 1 0 0 0 0 1 0 3 0 2 0 2 0 1 0 1 0 0 0 0 1 0 0 0 0 0 0 0 0 2 0 0 0 1 0 1 0 0 0 0 0 2 0 0 0 0 0 0 0 0 1 1 0 1 0 1 0 0 0 0 0 1 0 1 1 0 0 2 0 0 0 1 1 0 0 0 0 2 0 0 0 1 0 0 0 0 0 0 0 0 1 0 1 1 0 0 0 0 0 0 1 1 0 1 1 0 0 2 0 0 1 0 1 0 0 0 1 1 0 0 2 0 0 0 0 0 1 0 0 0 0 0 0 0 0 0 0 1 0 2 0 0 0 0 2 0 0 0 0 0 0 0 0 0 1 0 1 0 0 0 0 0 1 0 0 0 0 2 0 1 0 1 0 0 0 0 1 0 0 0 0 0 1 0 0 0 0 0 0 0 1 0 0 0 0 1 0 0 0 2 0 0 0 0 1 0 0 0 1 1 0 0 1 0 0 0 0 1 0 1 1 0 0 3 0 1 0 2 0 0 1 0 1 1 0 0 0 0 0 1 0 0 0 0 1 0 0 0 1 0 0 1 1 0 0 1 0 0 1 0 0 1 0 1 0 0 0 0 0 0 0 0 1 0 0 0 2 0 0 0 0 0 0 1 0 0 0 1 0 1 1 1 1 1 0 1 0 1 0 0 0 0 0 0 0 0 0 1 0 0 0 0 0 0 0 0 0 0 1 0 0 0 1 0 1 0 2 0 0 0 0 0 0 0 0 0 0 1 0 2 0 0 0 0 1 0 0 0 0 1 0 0 0 1 0 0 0 0 0 0 0 0 0 0 2 0 0 0 0 0 0 1 2 0 0 1 0 1 0 1 0 0 0 0 0 2 0 0 0 0 0 0 0 1 1 0 1 0 0 0 1 1 0 0 0 1 0 0 1 0 1 0 0 0 1 0 0 0 0 1 0 0 0 0 0 0 0 0 0 0 0 0 0 0 0 0 1 1 0 0 0 0 0 0 1 0 0 0 0 0 0 1 1 0 0 0 1 0 1 0 0 3 0 0 1 0 0 1 1 0 0 0 1 0 0 0 0 1 0 0 0 0 0 0 0 1 0 0 0 0 0 0 0 0 0 0 1 0 0 0 0 0 0 0 1 0 0 0 1 1 0 0 0 0 0 0 1 0 0 0 0 0 0 1 1 0 0 0 0 0 0 0 0 0 0 0 0 0 0 0 0 0 0 0 0 0 1 0 0 0 0 0 0 0 0 0 0 0 0 0 0 0 0 0 0 0 0 0 0 0 0 0 0 0 0 0 0 0 0 0 0 0 1 0 0 0 0 0 1 0 0 0 0 0 0 0 0 0 0 1 0 1 0 0 0 0 2 0 0 1 1 0 0 1 0 0 0 0 0 0 1 0 0 0 0 0 0 0 0 1 1 0 1 0 0 0 0 0 0 0 0 0 0 0 0 0 0 0 1 0 0 0 2 0 1 1 0 0 0 1 0 0 0 0 3 1 0 0 0 0 0 0 0 1 0 0 0 0 0 0 0 0 0 0 1 0 1 5 0 0 0 0 0 1 0 0 0 2 0 0 0 0 0 1 0 0 0 0 0 0 0 0 0 2 1 0 0 0 0 1 0 0 0 0 0 0 0 1 0 1 0 1 0 0 0 2 0 1 1 0 0 1 0 0 0 1 1 0 0 0 0 0 0 1 0 0 0 2 0 0 0 1 1 1 0 1 0 0 0 0 1 1 0 0 0 1 0 0 1 1 1 1 0 0 1 0 0 0 0 0 0 0 0 0 0 1 0 0 1 0 0 0 0 0 0 0 0 1 0 0 1 0 0 1 0 0 1 0 0 1 1 0 0 2 0 0 1 1 0 0 0 1 0 1 1 1 0 0 0 1 1 0 0 2 1 0 0 0 0 0 0 0 0 0 0 0 0 0 0 0 0 2 0 0 0 1 0 1 0 0 0 0 1 2 0 0 0 0 0 0 0 0 0 1 1 0 0 0 0 0 0 0 0 1 0 1 0 0 0 1 0 0 0 1 0 0 0 0 0 0 0 0 0 0 1 0 0 0 0 0 1 0 0 0 0 0 0 0 0 0 1 0 0 0 0 0 0 0 0 0 1 1 0 1 1 0 1 0 1 0 0 0 0 0 0 0 0 0 0 0 0 0 0 1 1 0 0 0 0 0 0 0 0 1 0 0 1 1 0 2 1 2 0 1 0 0 0 0 0 0 0 1 1 0 0 0 1 0 0 1 0 0 1 1 0 0 0 0 0 1 0 0 0 0 0 0 0 1 0 0 0 0 0 0 0 1 0 0 1 0 0 0 0 0 0 1 0 0 2 0 0 0 1 1 0 0 1 0 0 0 0 0 0 0 0 1 1 0 0 0 0 0 0 0 0 0 0 0</intensities>
			</dataPoints>
		</scan>
	</xrdMeasurement>
</xrdMeasurements>
