<?xml version="1.0" encoding="UTF-8"?>
<xrdMeasurements xmlns="http://www.xrdml.com/XRDMeasurement/1.6" xmlns:xsi="http://www.w3.org/2001/XMLSchema-instance" xsi:schemaLocation="http://www.xrdml.com/XRDMeasurement/1.6 http://www.xrdml.com/XRDMeasurement/1.6/XRDMeasurement.xsd" status="Aborted">
	<comment>
		<entry>Configuration=Chi-Phi-z stage, Owner=User-1, Creation date=2016/4/21 11:38:47</entry>
		<entry>Goniometer=Theta/Theta; Minimum step size 2Theta:0.0001; Minimum step size Omega:0.0001</entry>
		<entry>Sample stage=Chi-Phi-z stage 240 mm (reflection); Minimum step size Phi:0.01; Minimum step size Chi:0.01; Minimum step size Z:0.001</entry>
		<entry>Diffractometer system=EMPYREAN</entry>
		<entry>Measurement program=C:\PANalytical\Data Collector\Programs\Tony Zhu\XRR-1.xrdmp, Identifier={72757DA2-AD0C-4AFE-9BF6-93D5F4C18FC8}</entry>
		<entry>Batch program=C:\PANalytical\Data Collector\Programs\Tony Zhu\Batch_XRR-1.xrdmp, Identifier={395C2B64-CBC9-4195-8279-CEEDB080494D}</entry>
	</comment>
	<sample type="To be analyzed">
		<id>Co-C(260916B)</id>
		<name></name>
		<preparedBy>User-1</preparedBy>
	</sample>
	<xrdMeasurement measurementType="Scan" status="Aborted" sampleMode="Reflection">
		<comment>
			<entry>PHD Lower Level = 4.02 (keV), PHD Upper Level = 16.08 (keV)</entry>
		</comment>
		<usedWavelength intended="K-Alpha">
			<kAlpha1 unit="Angstrom">1.5405980</kAlpha1>
			<kAlpha2 unit="Angstrom">1.5444260</kAlpha2>
			<kBeta unit="Angstrom">1.3922500</kBeta>
			<ratioKAlpha2KAlpha1>0.5000</ratioKAlpha2KAlpha1>
		</usedWavelength>
		<incidentBeamPath>
			<radius unit="mm">240.00</radius>
			<xRayTube id="1010048" name="Empyrean Cu LFF HR (9430 033 7310x) DK417079">
				<tension unit="kV">40.0</tension>
				<current unit="mA">20.0</current>
				<anodeMaterial>Cu</anodeMaterial>
				<focus type="Line">
					<length unit="mm">12.0</length>
					<width unit="mm">0.4</width>
					<takeOffAngle unit="deg">4.4</takeOffAngle>
				</focus>
			</xRayTube>
			<xRayMirror id="27020001" name="Inc. Parallel beam X-ray mirror for Cu radiation" hybrid="false">
				<crystal type="Graded" shape="Parabolic">W/Si</crystal>
				<acceptanceAngle unit="deg">0.800</acceptanceAngle>
				<length unit="mm">55.3</length>
			</xRayMirror>
			<sollerSlit id="21010002" name="Soller slits 0.04 rad.">
				<opening unit="rad">0.0400</opening>
			</sollerSlit>
			<divergenceSlit id="22010011" name="Fixed slit 1/32°" xsi:type="fixedDivergenceSlitType">
				<distanceToSample unit="mm">140.00</distanceToSample>
				<height unit="mm">0.05</height>
			</divergenceSlit>
		</incidentBeamPath>
		<sampleOffset>
			<position axis="2Theta" unit="deg">0.0038</position>
			<position axis="Omega" unit="deg">0.1693</position>
		</sampleOffset>
		<diffractedBeamPath>
			<radius unit="mm">240.00</radius>
			<sollerSlit id="21010002" name="Soller slits 0.04 rad.">
				<opening unit="rad">0.0400</opening>
			</sollerSlit>
			<detector id="7010020" name="PIXcel3D-Medipix3 1x1 detector" xsi:type="areaDetectorType">
				<phd>
					<lowerLevel unit="%">25.0</lowerLevel>
					<upperLevel unit="%">100.0</upperLevel>
				</phd>
				<mode>Receiving slit</mode>
				<activeChannelsEquatorial>1</activeChannelsEquatorial>
				<activeChannelsAxial>255</activeChannelsAxial>
				<pitchEquatorial unit="mm">0.05500</pitchEquatorial>
				<pitchAxial unit="mm">0.05500</pitchAxial>
				<readOutPeriod unit="seconds">0.050</readOutPeriod>
			</detector>
		</diffractedBeamPath>
		<scan appendNumber="0" mode="Continuous" scanAxis="2Theta-Omega" status="Aborted">
			<header>
				<startTimeStamp>2026-09-17T12:57:15+08:00</startTimeStamp>
				<endTimeStamp>2026-09-17T13:13:38+08:00</endTimeStamp>
				<author>
					<name>admin</name>
				</author>
				<source>
					<applicationSoftware version="5.3">Data Collector</applicationSoftware>
					<instrumentControlSoftware version="7.8b 20160531">EMPYREAN</instrumentControlSoftware>
					<instrumentID>0000000011180024</instrumentID>
				</source>
			</header>
			<dataPoints>
				<positions axis="2Theta" unit="deg">
					<startPosition>0.1015</startPosition>
					<endPosition>14.7955</endPosition>
				</positions>
				<positions axis="Omega" unit="deg">
					<startPosition>0.05075</startPosition>
					<endPosition>7.39775</endPosition>
				</positions>
				<positions axis="Phi" unit="deg">
					<commonPosition>0.00</commonPosition>
				</positions>
				<positions axis="Chi" unit="deg">
					<commonPosition>-0.34</commonPosition>
				</positions>
				<positions axis="Z" unit="mm">
					<commonPosition>7.182</commonPosition>
				</positions>
				<commonCountingTime unit="seconds">0.176</commonCountingTime>
				<intensities unit="counts">240454 247430 252917 259134 263082 268233 272659 280075 287181 296849 302343 307709 311906 314392 315823 320028 326542 333126 339096 345411 349644 352225 355876 359164 365544 373320 382040 389751 393501 397811 397375 399867 402224 405380 413608 420636 426075 430600 433246 435111 436686 443866 451561 458315 462306 467226 470230 470456 470447 471371 476555 483339 488426 496063 497884 499641 501235 505202 508575 514096 522359 527353 530729 533167 532767 530384 531655 535027 539732 546395 551474 553880 555579 556244 557119 560712 564573 570072 575886 576655 579851 577773 576026 577058 578502 581978 586971 590042 594092 593288 595317 593294 594312 597558 601363 604022 606247 605319 603088 601633 600158 599744 601846 604183 606604 608828 608284 606692 605325 604133 605915 605938 607981 608075 606719 603531 598848 595737 594889 593670 596078 593601 594050 590203 588499 585657 583015 582131 579217 577680 577605 571593 567641 560878 556889 550842 548844 545620 541194 536740 531501 524358 517386 510739 504422 498430 490683 483547 473398 463218 451506 439876 427458 414846 402221 391824 378961 364426 350225 334891 319608 305328 291468 278083 263318 250683 237857 225601 213744 203770 194129 184991 176444 169374 161161 154589 147571 141227 135343 129685 125253 120408 115375 110425 105573 101163 97903 94606 91215 89081 86652 84142 81188 78431 75843 72615 70442 67535 65551 63118 61141 59440 57928 56975 55677 54567 53548 52503 50775 48835 47315 45539 43444 41595 40574 39705 38242 37820 37061 36711 36367 36174 35971 35734 35015 33903 32901 31726 30574 29063 27873 26796 25873 25366 24919 24749 24285 24519 24265 24735 24993 24854 24313 23827 22755 22395 21397 20256 19640 18541 17869 17329 16484 16497 16195 16552 16887 17081 17354 17759 18023 17793 17723 17330 16647 15881 15032 14237 13420 12549 11885 11489 11020 11118 11118 11354 11627 12221 12445 12902 13000 13182 13059 13044 12771 12434 11803 11017 10408 9763 8999 8287 8001 7828 7467 7487 7728 8145 8600 9148 9550 9831 10406 10450 10531 10270 10016 9735 9271 8430 7927 7150 6482 6087 5671 5457 5343 5438 5717 6195 6648 6950 7657 7821 8339 8670 8586 8919 8560 8236 7777 7200 6568 6027 5473 4974 4496 4164 4087 4042 4191 4345 4778 5288 5865 6361 6768 7197 7392 7602 7622 7523 7179 6924 6273 5919 5182 4665 4142 3686 3339 3210 3071 3235 3338 3926 4306 4886 5409 6009 6504 7076 7138 7274 7111 7015 6702 6238 5819 5156 4580 4006 3463 2960 2707 2528 2554 2606 2994 3298 3870 4330 5114 5581 6089 6640 7074 7245 7359 7008 6834 6452 5808 5361 4735 3981 3407 2916 2654 2378 2369 2350 2667 3221 3741 4371 5169 5889 6588 7218 7665 7997 8378 8190 8040 7541 7021 6464 5684 4900 4230 3576 2879 2656 2277 2375 2518 3064 3615 4337 5183 6136 7047 7958 8873 9613 10016 10162 10215 9739 9393 8845 7862 7111 6010 5226 4232 3585 3204 2954 3037 3485 4251 5335 6566 7880 9346 10950 12541 13645 14941 15714 16443 16576 16116 15525 14623 13246 11834 10437 8851 7578 6461 5685 5490 5654 6863 8284 10942 13617 17234 20758 24380 28064 31616 34835 37626 39809 40596 41077 40318 38325 36139 32973 29638 25837 22772 20703 19898 20534 23690 29276 38203 50490 65936 84573 104770 126956 150331 173530 198536 222546 243812 265580 282921 300034 312513 323684 331069 337127 342264 346019 349171 348646 348960 345214 340307 334131 326136 319438 311585 303024 290643 278904 266483 252841 239083 224018 209739 195088 179392 162991 146532 131116 114131 99393 84665 71797 59914 48856 39635 32440 25846 21592 18405 16835 15728 15708 16347 17013 17829 18938 19848 20277 20524 20375 19981 18835 17745 16483 14659 13157 11602 10095 8553 7346 6208 5337 4987 4445 4346 4655 4989 5173 5703 6138 6473 6920 7217 7400 7462 7459 7340 6744 6345 5789 5264 4738 4235 3604 3081 2665 2360 2240 2083 1940 2031 2110 2290 2485 2744 2817 3275 3258 3388 3552 3661 3583 3345 3258 3139 2817 2549 2271 1997 1720 1593 1425 1211 1040 1107 1071 1123 1259 1261 1402 1533 1612 1750 1775 1843 1865 1898 1865 1844 1657 1610 1446 1359 1180 1042 944 772 737 695 636 700 673 798 752 872 976 1063 1102 1172 1148 1170 1184 1137 1161 1124 1034 1035 915 799 763 665 583 541 509 459 465 457 511 549 595 580 673 748 751 811 833 815 852 818 724 717 710 636 588 504 439 436 374 339 303 320 309 335 370 400 455 471 522 554 590 585 638 597 585 612 579 496 469 497 370 398 314 290 270 250 222 226 236 250 263 302 367 388 419 445 464 455 474 536 449 451 442 421 396 299 304 260 226 231 186 200 188 165 168 198 217 269 276 330 296 383 363 415 411 402 422 341 357 311 305 257 245 221 153 133 121 131 130 122 141 150 181 205 221 270 267 287 347 311 303 325 331 306 292 289 241 201 202 182 157 106 112 91 100 100 90 121 153 138 180 211 213 246 269 255 264 248 259 270 248 233 188 183 162 166 112 106 96 76 80 86 81 84 100 117 138 187 213 223 213 222 263 225 224 251 214 223 194 165 145 113 98 87 82 60 72 64 69 73 72 102 135 134 144 192 176 219 225 243 227 238 233 191 182 175 144 145 105 91 72 62 51 51 47 72 75 91 133 125 139 166 203 191 208 205 253 241 215 231 212 144 158 138 121 84 83 79 57 46 46 44 58 64 90 119 160 142 182 200 215 218 251 251 254 228 222 197 161 158 135 104 92 79 77 59 56 55 72 70 78 108 128 143 184 206 238 276 260 261 240 223 244 243 202 205 147 146 99 117 88 74 71 46 60 66 91 124 134 180 202 231 300 318 291 323 347 349 357 322 311 288 242 240 197 178 156 100 99 94 103 112 134 182 206 272 340 422 510 576 638 651 673 730 764 742 716 703 700 633 577 516 445 364 319 267 310 300 331 394 551 707 942 1160 1551 1928 2319 2715 3174 3560 4218 4627 5089 5700 6255 6499 6808 7141 7536 7846 8095 8250 8201 8112 8113 7761 7537 7230 7022 6666 6322 5663 5273 4764 4376 3963 3476 3118 2704 2238 1820 1543 1284 1023 785 620 490 318 242 192 108 122 96 89 73 148 116 111 177 160 182 195 186 172 186 144 140 139 118 91 88 66 59 54 43 35 26 37 37 33 32 36 47 46 34 50 49 50 60 47 55 39 46 47 45 27 24 17 22 18 13 14 15 4 12 10 10 7 14 18 20 25 25 21 21 26 25 29 18 17 23 17 17 17 10 8 7 4 5 6 4 6 2 5 6 9 7 6 5 15 12 11 6 8 11 6 10 8 8 9 6 4 7 7 1 3 2 3 3 1 8 5 5 9 7 11 3 6 3 10 5 3 8 3 5 3 5 3 5 6 3 0 2 2 0 1 1 3 5 1 2 6 6 2 4 5 6 2 4 3 2 4 2 5 3 1 1 2 3 1 2 2 0 3 0 0 6 3 6 4 5 4 3 3 4 5 2 4 1 3 1 3 4 0 2 1 0 4 1 3 2 3 4 2 2 5 1 4 4 3 2 3 5 3 4 3 3 1 3 4 2 2 0 2 2 0 0 1 5 0 5 6 2 6 3 5 4 2 0 2 3 3 2 3 2 1 1 2 1 1 2 1 4 6 5 1 3 3 1 4 3 1 3 2 2 4 3 2 2 3 2 4 0 2 5 3 0 3 2 1 4 5 3 2 1 4 6 2 4 6 4 3 3 1 1 1 2 1 2 0 4 2 0 2 4 2 2 7 10 5 8 5 8 5 7 10 2 12 5 7 7 4 2 4 4 2 3 1 1 2 1 7 9 9 6 4 11 10 4 13 7 5 5 7 11 7 7 4 7 5 7 3 3 7 3 7 3 10 8 9 6 10 9 5 10 12 17 11 9 10 7 6 11 14 8 10 8 6 3 8 7 4 8 5 5 6 7 8 12 12 17 16 15 17 25 17 17 14 15 15 13 12 15 5 5 8 9 8 3 10 7 9 9 7 4 20 22 22 14 19 25 22 23 23 26 20 21 21 18 19 13 5 11 11 15 6 7 22 13 19 15 28 38 36 37 50 44 62 42 64 41 50 46 59 57 40 34 37 40 28 20 17 23 16 35 33 42 63 71 88 75 121 125 147 155 154 144 172 156 174 158 152 126 135 136 83 100 78 87 77 82 106 123 170 185 259 337 372 488 615 691 820 974 1061 1285 1367 1559 1674 1778 1806 1990 2092 2275 2213 2326 2276 2319 2387 2333 2302 2202 2170 2041 2010 1863 1755 1619 1428 1352 1211 1074 953 808 702 537 466 375 295 240 188 135 114 104 59 69 44 53 40 47 52 63 45 71 65 80 62 56 60 70 62 60 38 48 36 35 24 18 14 18 18 15 9 10 21 17 31 32 23 20 34 22 27 33 26 29 23 25 14 9 12 18 11 9 6 11 14 8 12 5 9 8 5 6 14 10 19 6 17 17 17 13 15 9 3 12 5 6 12 8 4 3 1 5 3 2 5 4 3 4 6 3 11 5 8 13 4 4 10 5 6 7 5 2 3 1 6 0 3 2 4 1 2 4 9 4 7 1 4 9 6 1 3 10 7 6 2 4 2 4 5 2 6 1 1 2 1 0 2 2 3 1 7 4 6 6 6 4 7 7 4 4 8 5 1 1 1 1 1 1 2 5 1 2 1 1 3 2 7 3 4 5 3 8 7 3 4 3 5 4 4 2 1 2 0 1 1 0 2 3 1 1 0 5 4 2 1 6 4 3 6 10 7 9 4 6 4 5 0 2 4 3 4 0 2 1 1 0 4 4 0 2 6 5 2 4 5 5 9 5 1 6 10 2 6 1 2 0 2 3 2 1 2 3 1 1 3 3 3 1 4 2 5 3 7 3 4 5 3 5 1 2 5 1 2 2 2 1 2 1 2 2 0 0 0 2 5 5 5 8 6 1 1 6 3 2 2 5 3 6 2 4 4 1 2 1 1 4 3 1 3 5 3 3 1 2 3 6 4 5 3 7 4 7 5 5 4 3 3 6 0 2 0 4 3 3 3 4 0 2 7 4 10 4 4 12 8 5 5 7 3 8 4 5 2 3 2 4 3 3 2 0 2 5 2 3 4 2 7 3 4 2 7 5 7 6 4 3 4 5 4 4 3 6 2 4 1 3 2 3 6 8 3 3 6 3 3 3 6 8 4 6 8 13 7 7 4 10 0 6 6 2 4 3 5 2 5 2 0 3 8 5 9 6 7 7 7 15 10 10 6 8 10 4 7 8 6 4 6 5 4 9 2 1 8 11 6 6 4 11 7 7 6 13 8 16 21 12 12 15 14 10 9 7 6 7 8 8 10 5 11 5 10 11 17 13 16 18 23 16 25 35 29 40 30 24 21 45 39 25 26 16 18 14 14 20 24 16 25 24 31 36 43 57 64 76 95 106 130 145 161 179 165 232 264 234 255 287 314 268 287 318 316 321 317 302 289 291 237 255 242 232 245 184 199 160 131 131 104 103 68 77 52 49 43 28 36 32 18 12 12 13 9 7 9 6 1 5 4 11 4 7 10 6 13 9 9 8 1 7 0 1 4 2 4 1 1 4 2 3 2 5 3 3 4 2 4 6 2 2 1 1 3 1 2 2 2 2 2 0 3 3 2 6 1 0 3 2 3 3 4 2 4 2 2 2 1 1 2 0 0 0 3 2 1 3 0 0 1 0 1 1 0 2 1 1 0 2 0 0 0 1 1 0 1 1 1 4 1 0 0 2 2 0 1 3 2 2 2 1 3 0 2 0 1 1 1 1 0 1 0 0 2 1 1 3 1 0 0 1 0 2 3 0 1 1 1 1 2 0 1 1 4 0 0 1 0 2 0 0 1 1 0 0 0 0 0 1 2 2 0 0 2 0 2 0 0 1 2 0 0 0 1 0 2 2 0 0 1 1 0 0 1 0 0 0 0 3 1 1 1 1 0 1 1 0 0 1 1 2 0 1 0 0 0 0 0 1 1 0 1 1 0 1 0 0 1 1 1 0 2 0 1 0 3 3 1 2 1 0 0 0 2 2 2 0 0 1 0 0 1 2 2 1 1 1 0 2 2 1 2 1 0 1 0 3 2 0 0 1 1 1 0 0 1 0 0 2 0 1 0 3 0 0 0 1 1 2 0 1 1 0 1 3 0 1 1 0 0 0 0 1 1 1 1 1 0 2 0 1 0 0 1 0 1 1 0 0 1 1 0 0 2 1 0 0 1 0 1 2 1 1 0 1 0 0 0 0 0 0 2 0 0 0 0 1 2 3 2 2 0 1 4 0 1 1 0 0 0 0 0 0 1 0 1 0 0 1 2 0 0 1 0 0 0 0 0 0 0 2 3 1 0 0 1 3 0 0 0 1 1 3 2 1 0 0 2 1 1 2 2 0 2 0 0 0 0 0 3 2 0 0 1 2 1 0 1 1 3 0 1 0 1 4 3 0 1 2 0 0 1 1 2 1 1 0 1 5 1 0 1 1 2 1 4 0 2 4 2 2 4 2 1 0 0 2 1 2 0 5 0 2 1 2 2 6 1 1 2 2 4 1 2 1 3 5 4 3 4 3 6 7 6 6 7 8 4 3 3 4 1 5 1 2 1 2 5 7 2 7 5 11 15 16 11 9 17 18 27 19 34 43 34 34 35 31 45 35 38 37 40 36 48 62 46 53 32 50 27 32 34 33 35 22 21 17 23 13 19 12 11 7 7 9 4 2 6 3 2 3 5 2 1 1 1 1 2 2 1 1 4 2 3 0 2 1 1 0 0 0 0 1 0 0 0 0 2 1 1 1 1 1 0 0 1 0 0 0 0 2 2 0 1 1 2 1 2 0 1 0 2 0 0 0 1 0 1 0 0 0 0 0 0 0 0 1 1 0 0 0 0 0 0 0 1 0 1 0 0 2 1 1 0 1 1 1 1 0 0 0 1 0 1 1 0 0 0 1 1 0 0 1 0 2 0 0 0 2 0 0 1 0 0 0 0 0 0 0 1 1 0 1 0 1 2 1 1 0 0 1 0 0 2 0 0 0 1 1 0 0 1 0 0 1 1 0 0 3 0 1 1 0 0 0 0 0 0 0 1 2 0 0 3 0 0 0 2 2 0 1 1 2 0 1 0 0 1 0 0 1 0 1 1 2 0 0 0 0 0 0 1 1 1 0 1 1 0 0 0 2 0 1 0 0 0 0 0 3 0 0 1 2 0 0 0 1 1 0 0 2 0 0 1 0 0 1 1 0 1 0 0 0 1 0 1 0 0 0 0 0 0 1 0 0 1 1 0 2 3 0 1 1 0 0 2 2 0 1 0 1 0 0 0 0 1 1 2 0 0 0 2 0 0 1 0 1 1 0 1 0 1 1 0 0 0 0 1 0 0 0 1 0 1 0 0 0 0 0 0 0 0 1 0 1 0 0 1 1 0 0 0 0 1 0 0 1 0 0 1 0 0 0 0 2 0 0 2 1 0 1 0 1 1 0 2 0 0 0 1 0 0 0 0 0 1 0 2 0 0 0 1 0 0 0 0 1 2 0 0 0 1 0 1 0 1 0 0 0 2 0 0 0 1 0 0 0 0 1 0 0 1 0 0 1 1 0 1 1 0 0 0 1 1 0 0 0 0 1 1 0 1 0 0 0 2 1 0 0 1 2 0 3 2 0 0 0 1 0 2 1 1 0 1 0 1 0 1 2 2 0 1 0 0 0 0 0 2 1 1 1 0 1 0 0 1 0 1 0 1 1 1 0 1 0 0 0 0 0 0 1 2 2 0 1 0 1 1 1 1 0 1 3 1 0 3 1 2 3 1 1 0 0 4 1 1 1 3 2 0 1 5 4 3 5 8 5 2 5 6 7 9 9 6 9 8 6 8 8 9 8 10 6 7 9 8 7 8 7 8 3 10 3 3 5 3 7 4 2 0 3 1 2 0 2 1 2 0 1 3 0 1 2 1 0 0 0 0 1 0 1 0 1 1 0 0 1 1 0 0 0 0 0 0 0 1 0 0 0 0 0 1 0 1 1 0 1 1 0 0 0 0 0 1 0 0 1 0 0 1 0 0 0 0 0 0 0 2 0 0 0 0 0 0 0 0 0 0 0 1 0 0 0 1 0 0 0 0 0 2 0 0 0 2 0 0 0 0 0 0 0 0 0 0 0 1 2 0 1 0 0 1 0 0 0 0 0 0 0 0 0 1 1 1 1 1 0 0 0 1 0 0 0 1 0 0 1 0 0 0 0 0 0 0 1 0 0 1 1 0 1 0 0 0 1 1 0 0 1 0 1 0 1 0 1 0 0 0 0 0 0 0 0 0 0 0 0 0 0 0 0 0 1 0 0 1 0 0 0 0 0 0 0 0 1 1 0 0 1 0 0 0 0 0 0 0 1 0 1 0 0 0 0 0 0 2 1 0 0 0 0 0 0 0 0 0 1 0 0 1 0 0 1 0 2 0 0 0 2 1 1 0 0 0 1 0 0 0 1 0 1 1 1 1 0 0 1 0 0 0 1 0 0 0 0 0 0 0 0 1 0 0 0 1 0 0 0 0 0 1 0 0 2 0 1 1 0 0 0 0 0 0 0 0 0 0 0 0 1 0 0 0 0 1 0 1 0 0 1 1 0 0 0 1 0 1 0 1 0 0 2 0 1 0 3 1 0 1 0 1 0 1 1 0 0 0 1 1 0 0 1 0 0 1 0 0 0 0 1 0 0 0 0 0 0 1 0 0 0 0 1 0 0 0 1 1 1 1 2 0 0 1 0 0 0 0 0 0 0 2 0 0 0 0 1 1 1 1 1 0 0 1 0 0 0 1 0 0 0 0 1 0 1 0 0 0 0 0 0 0 1 1 2 1 1 2 0 0 0 0 2 0 0 1 2 0 0 2 0 0 0 0 2 0 0 1 0 0 0 0 0 0 0 0 0 1 0 0 1 0 0 0 2 0 0 1 0 0 0 0 0 0 1 2 0 0 1 1 1 0 0 0 0 0 3 0 0 0 0 1 2 0 0 1 1 0 2 2 0 0 1 0 0 1 0 0 1 0 0 2 0 0 0 1 0 1 2 0 0 1 1 1 0 2 2 3 2 0 1 3 2 2 5 3 1 1 0 4 2 3 0 1 0 2 0 1 0 1 0 0 0 0 0 3 0 1 0 1 0 0 0 1 0 0 0 0 1 1 0 1 0 0 0 1 0 0 0 0 1 1 1 2 0 1 0 0 0 1 0 1 0 0 0 0 1 1 0 3 0 0 0 1 0 0 0 0 0 0 0 0 0 1 0 0 0 2 1 1 0 0 1 0 0 0 0 0 0 2 1 0 1 0 1 0 0 0 0 0 0 0 2 0 0 0 1 0 0 1 1 0 0 0 0 1 0 1 0 0 0 0 0 0 0 1 1 0 0 0 0 0 0 1 0 0 2 1 0 0 1 3 0 0 0 0 0 1 0 0 0 1 2 0 0 1 1 1 0 0 0 0 0 0 0 1 0 0 1 0 0 0 0 0 1 0 0 1 0 1 0 1 0 1 0 1 1 0 0 0 0 1 0 0 1 0 0 1 0 0 0 0 2 0 0 1 0 0 0 0 0 0 0 1 0 0 0 0 0 0 0 0 0 1 0 1 0 0 1 1 0 0 0 1 0 0 1 0 0 0 0 0 0 0 0 0 2 0 0 0 0 0 0 0 0 0 0 1 0 0 0 0 0 0 0 0 0 0 0 0 0 1 0 1 0 2 0 0 0 0 0 0 0 0 1 0 0 0 0 0 1 0 0 0 0 0 0 1 0 1 0 0 0 0 2 0 0 0 0 0 0 0 0 0 0 0 0 1 0 0 1 1 0 0 1 0 0 1 0 0 1 0 0 0 1 0 2 0 3 0 0 0 0 1 0 1 1 0 0 0 1 1 0 0 0 0 0 1 0 0 0 0 0 2 0 1 0 1 2 0 0 1 0 0 1 0 0 1 0 0 0 0 0 1 0 0 0 0 0 0 1 0 1 0 1 1 1 0 0 0 0 0 0 0 0 0 0 0 0 1 0 0 0 0 0 1 0 0 1 1 1 0 0 0 0 0 1 0 0 1 0 0 0 0 0 0 0 0 0 0 0 1 0 1 0 0 0 1 2 0 1 0 0 0 1 0 0 0 0 0 1 0 0 0 0 0 0 0 0 0 0 0 0 0 0 0 0 0 1 0 0 1 0 0 0 0 0 2 1 0 0 1 1 0 0 1 0 0 1 0 0 0 1 0 0 0 0 0 1 0 0 0 0 0 0 0 0 0 0 0 0 1 1 0 1 2 0 0 0 1 1 2 0 0 0 4 0 1 2 0 0 1 1 0 0 0 0 0 0 0 0 1 1 0 1 0 0 0 0 0 0 0 0 0 0 1 1 1 0 0 0 1 1 0 0 0 0 0 0 0 0 0 0 0 0 0 0 1 1 0 0 2 0 0 0 1 0 0 0 2 0 0 0 1 2 0 0 0 0 0 0 0 0 0 0 0 1 0 0 0 0 0 0 0 0 0 1 1 1 0 1 0 0 0 0 0 1 1 0 0 1 0 0 0 1 0 0 0 0 0 1 0 0 0 0 0 0 0 0 0 0 1 0 0 0 1 0 0 1 0 2 0 1 0 0 0 0 0 0 0 0 0 1 1 0 0 0 0 0 0 0 2 0 0 0 0 0 0 0 0 1 1 0 0 1 0 1 0 0 2 0 0 1 0 0 0 0 1 0 2 0 0 0 0 0 1 0 0 0 0 0 0 0 0 0 0 0 0 0 0 1 0 0 0 0 0 1 1 0 0 1 0 0 0 1 0 0 1 0 0 0 0 0 0 0 0 0 0 0 0 0 0 0 0 0 0 0 0 0 1 1 0 0 0 0 0 1 0 0 0 0 0 0 0 0 0 0 1 0 1 0 0 0 0 0 0 0 0 0 0 0 0 0 0 0 0 0 1 0 0 0 0 1 0 0 0 1 2 0 0 0 0 0 0 0 1 1 0 0 0 1 0 0 0 0 0 0 0 0 1 0 1 1 2 0 1 1 0 0 0 1 0 0 1 0 0 0 0 0 1 0 0 1 1 0 0 0 0 3 0 3 1 1 0 0 0 0 0 0 0 0 0 0 1 0 0 1 0 0 1 0 0 0 0 0 0 0 1 0 0 0 3 0 0 0 0 0 0 0 0 0 1 0 0 0 0 0 0 1 0 0 2 0 0 0 0 0 1 0 0 0 0 0 0 1 0 0 0 0 0 2 0 0 0 0 0 0 0 1 1 1 1 0 0 0 0 0 1 0 2 0 0 0 1 0 0 0 0 0 0 0 0 2 1 0 0 0 0 0 1 0 0 0 0 0 0 0 0 0 0 1 1 0 0 0 1 0 0 0 0 2 0 1 1 0 0 0 0 0 0 0 1 0 0 1 0 0 2 0 0 0 0 0 0 0 0 0 0 0 0 0 1 1 1 0 0 0 0 0 0 0 0 0 0 0 0 0 1 0 0 0 0 0 1 0 1 0 1 0 0 0 0 0 0 0 0 0 0 1 0 0 0 1 0 0 1 0 0 0 0 0 1 0 0 0 0 0 1 0 0 0 0 0 0 0 0 0 2 0 0 0 0 1 0 0 1 1 0 0 0 0 0 0 1 0 0 0 0 0 0 0 1 0 0 2 0 0 0 1 0 0 0 0 0 0 0 0 0</intensities>
			</dataPoints>
		</scan>
	</xrdMeasurement>
</xrdMeasurements>
